! IEEE P802.3ck contribution ito_3ck_01_1118 (Nov 2018): module compliance board PCB trace model,
! decimated 10:1 in frequency by SerDes Optical Lab PRO for use as a measurement fixture (de-embedding).
! Source: https://www.ieee802.org/3/ck/public/tools/c2m/ito_3ck_01_1118_PCBtrace.zip (Module_Board.s4p)
! Original SHA-256: 860cce7cbf4f86d31035675fff817a0d373664c1019b068fa99dbd4dd2adf08a
! AWR Design Environment (8415) Thu Oct 18 13:44:33 2018
# HZ S DB R 50
0 -41.255433 -0 -0.07549683 -0 -800 0 -800 0 
	-0.07549683 -0 -41.255433 -0 -800 0 -800 0 
	-800 0 -800 0 -41.255433 -0 -0.07549683 -0 
	-800 0 -800 0 -0.07549683 -0 -41.255433 -0 
1e+008 -35.544159 40.235428 -0.096373583 -13.006222 -44.257397 74.269731 -66.924614 -152.7976 
	-0.096373583 -13.006222 -35.544159 40.235428 -66.924614 -152.7976 -44.257397 74.269731 
	-44.257397 74.269731 -66.924614 -152.7976 -35.544152 40.235481 -0.096373539 -13.006222 
	-66.924614 -152.7976 -44.257397 74.269731 -0.096373539 -13.006222 -35.544152 40.235481 
2e+008 -32.339983 30.505904 -0.13883464 -25.653156 -38.620989 62.46831 -63.75785 -175.24658 
	-0.13883464 -25.653156 -32.339983 30.505904 -63.75785 -175.24658 -38.620989 62.46831 
	-38.620989 62.46831 -63.75785 -175.24658 -32.339969 30.505988 -0.13883457 -25.653157 
	-63.75785 -175.24658 -38.620989 62.46831 -0.13883457 -25.653157 -32.339969 30.505988 
3e+008 -30.630228 20.019318 -0.17232807 -38.239102 -35.550074 50.35142 -62.075881 161.6003 
	-0.17232807 -38.239102 -30.630228 20.019318 -62.075881 161.6003 -35.550074 50.35142 
	-35.550074 50.35142 -62.075881 161.6003 -30.630204 20.019432 -0.17232801 -38.239103 
	-62.075881 161.6003 -35.550074 50.35142 -0.17232801 -38.239103 -30.630204 20.019432 
4e+008 -29.636671 9.1697413 -0.20097334 -50.792832 -33.626582 38.163238 -61.104036 138.10904 
	-0.20097334 -50.792832 -29.636671 9.1697413 -61.104036 138.10904 -33.626582 38.163238 
	-33.626582 38.163238 -61.104036 138.10904 -29.636651 9.169836 -0.20097327 -50.792834 
	-61.104036 138.10904 -33.626582 38.163238 -0.20097327 -50.792834 -29.636651 9.169836 
5e+008 -29.120433 -1.889622 -0.22630844 -63.326125 -32.412584 25.964167 -60.604698 114.42055 
	-0.22630844 -63.326125 -29.120433 -1.889622 -60.604698 114.42055 -32.412584 25.964167 
	-32.412584 25.964167 -60.604698 114.42055 -29.120408 -1.8895116 -0.22630835 -63.326124 
	-60.604698 114.42055 -32.412584 25.964167 -0.22630835 -63.326124 -29.120408 -1.8895116 
6e+008 -28.98534 -13.07749 -0.24912344 -75.845676 -31.724261 13.780283 -60.482162 90.60887 
	-0.24912344 -75.845676 -28.98534 -13.07749 -60.482162 90.60887 -31.724261 13.780283 
	-31.724261 13.780283 -60.482162 90.60887 -28.985307 -13.077362 -0.24912335 -75.845678 
	-60.482162 90.60887 -31.724261 13.780283 -0.24912335 -75.845678 -28.985307 -13.077362 
7e+008 -29.195036 -24.339945 -0.26993465 -88.355992 -31.479133 1.6308058 -60.7 66.722091 
	-0.26993465 -88.355992 -29.195036 -24.339945 -60.7 66.722091 -31.479133 1.6308058 
	-31.479133 1.6308058 -60.7 66.722091 -29.195006 -24.339829 -0.26993451 -88.355994 
	-60.7 66.722091 -31.479133 1.6308058 -0.26993451 -88.355994 -29.195006 -24.339829 
8e+008 -29.749372 -35.631229 -0.28915459 -100.86032 -31.64988 -10.461199 -61.257374 42.800585 
	-0.28915459 -100.86032 -29.749372 -35.631229 -61.257374 42.800585 -31.64988 -10.461199 
	-31.64988 -10.461199 -61.257374 42.800585 -29.749345 -35.631126 -0.28915445 -100.86032 
	-61.257374 42.800585 -31.64988 -10.461199 -0.28915445 -100.86032 -29.749345 -35.631126 
9e+008 -30.680795 -46.899199 -0.30715668 -113.36093 -32.251616 -22.458868 -62.185057 18.888759 
	-0.30715668 -113.36093 -30.680795 -46.899199 -62.185057 18.888759 -32.251616 -22.458868 
	-32.251616 -22.458868 -62.185057 18.888759 -30.680769 -46.899106 -0.30715653 -113.36094 
	-62.185057 18.888759 -32.251616 -22.458868 -0.30715653 -113.36094 -30.680769 -46.899106 
1e+009 -32.064849 -58.064441 -0.32429154 -125.85929 -33.348099 -34.293313 -63.555082 -4.9475285 
	-0.32429154 -125.85929 -32.064849 -58.064441 -63.555082 -4.9475285 -33.348099 -34.293313 
	-33.348099 -34.293313 -63.555082 -4.9475285 -32.064816 -58.064322 -0.32429136 -125.85929 
	-63.555082 -4.9475285 -33.348099 -34.293313 -0.32429136 -125.85929 -32.064816 -58.064322 
1.1e+009 -34.054079 -68.970162 -0.34087882 -138.35605 -35.083471 -45.815421 -65.51226 -28.58208 
	-0.34087882 -138.35605 -34.054079 -68.970162 -65.51226 -28.58208 -35.083471 -45.815421 
	-35.083471 -45.815421 -65.51226 -28.58208 -34.054057 -68.970084 -0.34087864 -138.35605 
	-65.51226 -28.58208 -35.083471 -45.815421 -0.34087864 -138.35605 -34.054057 -68.970084 
1.2e+009 -36.97923 -79.211939 -0.35718749 -150.85118 -37.782199 -56.626655 -68.366845 -51.699743 
	-0.35718749 -150.85118 -36.97923 -79.211939 -68.366845 -51.699743 -37.782199 -56.626655 
	-37.782199 -56.626655 -68.366845 -51.699743 -36.979189 -79.211809 -0.35718731 -150.85119 
	-68.366845 -51.699743 -37.782199 -56.626655 -0.35718731 -150.85119 -36.979189 -79.211809 
1.3e+009 -41.739586 -87.223545 -0.37341418 -163.34414 -42.338811 -65.165994 -72.94498 -73.132084 
	-0.37341418 -163.34414 -41.739586 -87.223545 -72.94498 -73.132084 -42.338811 -65.165994 
	-42.338811 -65.165994 -72.94498 -73.132084 -41.739547 -87.223423 -0.37341396 -163.34414 
	-72.94498 -73.132084 -42.338811 -65.165994 -0.37341396 -163.34414 -41.739547 -87.223423 
1.4e+009 -52.555638 -75.79117 -0.38966713 -175.83401 -52.970651 -54.224348 -83.042907 -81.548346 
	-0.38966713 -175.83401 -52.555638 -75.79117 -83.042907 -81.548346 -52.970651 -54.224348 
	-52.970651 -54.224348 -83.042907 -81.548346 -52.555609 -75.791108 -0.38966692 -175.83401 
	-83.042907 -81.548346 -52.970651 -54.224348 -0.38966692 -175.83401 -52.555609 -75.791108 
1.5e+009 -47.730841 42.864341 -0.40596132 171.68017 -47.975291 63.981275 -80.616993 34.132171 
	-0.40596132 171.68017 -47.730841 42.864341 -80.616993 34.132171 -47.975291 63.981275 
	-47.975291 63.981275 -80.616993 34.132171 -47.7308 42.864472 -0.40596107 171.68017 
	-80.616993 34.132171 -47.975291 63.981275 -0.40596107 171.68017 -47.7308 42.864472 
1.6e+009 -40.455155 41.238543 -0.42222645 159.19923 -40.543801 61.925589 -72.629887 20.179768 
	-0.42222645 159.19923 -40.455155 41.238543 -72.629887 20.179768 -40.543801 61.925589 
	-40.543801 61.925589 -72.629887 20.179768 -40.455118 41.238649 -0.42222624 159.19923 
	-72.629887 20.179768 -40.543801 61.925589 -0.42222624 159.19923 -40.455118 41.238649 
1.7e+009 -36.880793 32.0611 -0.43832821 146.72367 -36.825071 52.344985 -68.884728 -1.7692226 
	-0.43832821 146.72367 -36.880793 32.0611 -68.884728 -1.7692226 -36.825071 52.344985 
	-36.825071 52.344985 -68.884728 -1.7692226 -36.880745 32.061221 -0.43832796 146.72366 
	-68.884728 -1.7692226 -36.825071 52.344985 -0.43832796 146.72366 -36.880745 32.061221 
1.8e+009 -34.729184 21.454825 -0.45409847 134.25349 -34.539075 41.357017 -66.657594 -25.071257 
	-0.45409847 134.25349 -34.729184 21.454825 -66.657594 -25.071257 -34.539075 41.357017 
	-34.539075 41.357017 -66.657594 -25.071257 -34.729139 21.454937 -0.45409823 134.25347 
	-66.657594 -25.071257 -34.539075 41.357017 -0.45409823 134.25347 -34.729139 21.454937 
1.9e+009 -33.38822 10.351553 -0.46937053 121.78815 -33.072545 29.890152 -65.272508 -48.831839 
	-0.46937053 121.78815 -33.38822 10.351553 -65.272508 -48.831839 -33.072545 29.890152 
	-33.072545 29.890152 -65.272508 -48.831839 -33.388166 10.351697 -0.46937028 121.78815 
	-65.272508 -48.831839 -33.072545 29.890152 -0.46937028 121.78815 -33.388166 10.351697 
2e+009 -32.614588 -0.96345957 -0.4840121 109.32671 -32.181322 18.226935 -64.467325 -72.789389 
	-0.4840121 109.32671 -32.614588 -0.96345957 -64.467325 -72.789389 -32.181322 18.226935 
	-32.181322 18.226935 -64.467325 -72.789389 -32.614545 -0.96334012 -0.48401186 109.32671 
	-64.467325 -72.789389 -32.181322 18.226935 -0.48401186 109.32671 -32.614545 -0.96334012 
2.1e+009 -32.297782 -12.365243 -0.49795214 96.867876 -31.75418 6.4905614 -64.123498 -96.831757 
	-0.49795214 96.867876 -32.297782 -12.365243 -64.123498 -96.831757 -31.75418 6.4905614 
	-31.75418 6.4905614 -64.123498 -96.831757 -32.297752 -12.365164 -0.49795187 96.867871 
	-64.123498 -96.831757 -31.75418 6.4905614 -0.49795187 96.867871 -32.297752 -12.365164 
2.2e+009 -32.392418 -23.777939 -0.51119571 84.410255 -31.745161 -5.2441944 -64.190851 -120.89642 
	-0.51119571 84.410255 -32.392418 -23.777939 -64.190851 -120.89642 -31.745161 -5.2441944 
	-31.745161 -5.2441944 -64.190851 -120.89642 -32.39239 -23.777864 -0.51119544 84.41025 
	-64.190851 -120.89642 -31.745161 -5.2441944 -0.51119544 84.41025 -32.39239 -23.777864 
2.3e+009 -32.896793 -35.133695 -0.5238259 71.952518 -32.152059 -16.909979 -64.663537 -144.92868 
	-0.5238259 71.952518 -32.896793 -35.133695 -64.663537 -144.92868 -32.152059 -16.909979 
	-32.152059 -16.909979 -64.663537 -144.92868 -32.896738 -35.133565 -0.52382561 71.952507 
	-64.663537 -144.92868 -32.152059 -16.909979 -0.52382561 71.952507 -32.896738 -35.133565 
2.4e+009 -33.851778 -46.342341 -0.53599154 59.493684 -33.015283 -28.41671 -65.577255 -168.85996 
	-0.53599154 59.493684 -33.851778 -46.342341 -65.577255 -168.85996 -33.015283 -28.41671 
	-33.015283 -28.41671 -65.577255 -168.85996 -33.85174 -46.342244 -0.5359913 59.493688 
	-65.577255 -168.85996 -33.015283 -28.41671 -0.5359913 59.493688 -33.85174 -46.342244 
2.5e+009 -35.358954 -57.241506 -0.54788366 47.033204 -34.43592 -39.601856 -67.024281 167.42644 
	-0.54788366 47.033204 -35.358954 -57.241506 -67.024281 167.42644 -34.43592 -39.601856 
	-34.43592 -39.601856 -67.024281 167.42644 -35.358914 -57.24142 -0.54788336 47.033183 
	-67.024281 167.42644 -34.43592 -39.601856 -0.54788336 47.033183 -35.358914 -57.24142 
2.6e+009 -37.638301 -67.455533 -0.55970373 34.571053 -36.633456 -50.089603 -69.205423 144.19565 
	-0.55970373 34.571053 -37.638301 -67.455533 -69.205423 144.19565 -36.633456 -50.089603 
	-36.633456 -50.089603 -69.205423 144.19565 -37.638252 -67.455422 -0.55970343 34.571042 
	-69.205423 144.19565 -36.633456 -50.089603 -0.55970343 34.571042 -37.638252 -67.455422 
2.7e+009 -41.219145 -75.804454 -0.57163054 22.107745 -40.136789 -58.700153 -72.595026 122.23547 
	-0.57163054 22.107745 -41.219145 -75.804454 -72.595026 122.23547 -40.136789 -58.700153 
	-40.136789 -58.700153 -72.595026 122.23547 -41.219099 -75.804346 -0.5716302 22.107734 
	-72.595026 122.23547 -40.136789 -58.700153 -0.5716302 22.107734 -41.219099 -75.804346 
2.8e+009 -47.817132 -75.660839 -0.58379019 9.6441835 -46.661269 -58.805982 -78.709029 105.59819 
	-0.58379019 9.6441835 -47.817132 -75.660839 -78.709029 105.59819 -46.661269 -58.805982 
	-46.661269 -58.805982 -78.709029 105.59819 -47.817093 -75.660723 -0.58378984 9.6441725 
	-78.709029 105.59819 -46.661269 -58.805982 -0.58378984 9.6441725 -47.817093 -75.660723 
2.9e+009 -54.498963 16.255179 -0.59623599 -2.8184793 -53.271499 32.880006 -89.796457 175.89289 
	-0.59623599 -2.8184793 -54.498963 16.255179 -89.796457 175.89289 -53.271499 32.880006 
	-53.271499 32.880006 -89.796457 175.89289 -54.498907 16.255401 -0.59623565 -2.8184904 
	-89.796457 175.89289 -53.271499 32.880006 -0.59623565 -2.8184904 -54.498907 16.255401 
3e+009 -44.399514 43.972956 -0.60894121 -15.279099 -43.104423 60.360933 -77.444186 -151.50209 
	-0.60894121 -15.279099 -44.399514 43.972956 -77.444186 -151.50209 -43.104423 60.360933 
	-43.104423 60.360933 -77.444186 -151.50209 -44.399462 43.97307 -0.60894087 -15.27911 
	-77.444186 -151.50209 -43.104423 60.360933 -0.60894087 -15.27911 -44.399462 43.97307 
3.1e+009 -39.732368 38.369547 -0.62180644 -27.736747 -38.372404 54.535548 -72.263746 -169.93772 
	-0.62180644 -27.736747 -39.732368 38.369547 -72.263746 -169.93772 -38.372404 54.535548 
	-38.372404 54.535548 -72.263746 -169.93772 -39.732307 38.369695 -0.6218061 -27.736738 
	-72.263746 -169.93772 -38.372404 54.535548 -0.6218061 -27.736738 -39.732307 38.369695 
3.2e+009 -37.01483 28.936318 -0.63467958 -40.190804 -35.592345 44.887788 -69.353055 167.77276 
	-0.63467958 -40.190804 -37.01483 28.936318 -69.353055 167.77276 -35.592345 44.887788 
	-35.592345 44.887788 -69.353055 167.77276 -37.014783 28.93641 -0.63467924 -40.190815 
	-69.353055 167.77276 -35.592345 44.887788 -0.63467924 -40.190815 -37.014783 28.93641 
3.3e+009 -35.294763 18.37976 -0.64738539 -52.641233 -33.812043 34.122463 -67.528304 144.44605 
	-0.64738539 -52.641233 -35.294763 18.37976 -67.528304 144.44605 -33.812043 34.122463 
	-33.812043 34.122463 -67.528304 144.44605 -35.294719 18.379848 -0.64738506 -52.641245 
	-67.528304 144.44605 -33.812043 34.122463 -0.64738506 -52.641245 -35.294719 18.379848 
3.4e+009 -34.226416 7.3708003 -0.65975817 -65.088436 -32.685678 22.909489 -66.389779 120.71268 
	-0.65975817 -65.088436 -34.226416 7.3708003 -66.389779 120.71268 -32.685678 22.909489 
	-32.685678 22.909489 -66.389779 120.71268 -34.226372 7.3708835 -0.65975784 -65.088447 
	-66.389779 120.71268 -32.685678 22.909489 -0.65975784 -65.088447 -34.226372 7.3708835 
3.5e+009 -33.655969 -3.8360144 -0.67167231 -77.533271 -32.059429 11.502818 -65.764157 96.800867 
	-0.67167231 -77.533271 -33.655969 -3.8360144 -65.764157 96.800867 -32.059429 11.502818 
	-32.059429 11.502818 -65.764157 96.800867 -33.655914 -3.8359245 -0.67167198 -77.533298 
	-65.764157 96.800867 -32.059429 11.502818 -0.67167198 -77.533298 -33.655914 -3.8359245 
3.6e+009 -33.513763 -15.109812 -0.68306515 -89.976878 -31.863641 0.033196928 -65.572304 72.819343 
	-0.68306515 -89.976878 -33.513763 -15.109812 -65.572304 72.819343 -31.863641 0.033196928 
	-31.863641 0.033196928 -65.572304 72.819343 -33.513722 -15.109736 -0.68306482 -89.976889 
	-65.572304 72.819343 -31.863641 0.033196928 -0.68306482 -89.976889 -33.513722 -15.109736 
3.7e+009 -33.779371 -26.356465 -0.69394833 -102.42043 -32.077841 -11.404967 -65.78727 48.841832 
	-0.69394833 -102.42043 -33.779371 -26.356465 -65.78727 48.841832 -32.077841 -11.404967 
	-32.077841 -11.404967 -65.78727 48.841832 -33.779319 -26.356383 -0.693948 -102.42045 
	-65.78727 48.841832 -32.077841 -11.404967 -0.693948 -102.42045 -33.779319 -26.356383 
3.8e+009 -34.472744 -37.475206 -0.70440593 -114.86503 -32.721922 -22.710355 -66.422837 24.944024 
	-0.70440593 -114.86503 -34.472744 -37.475206 -66.422837 24.944024 -32.721922 -22.710355 
	-32.721922 -22.710355 -66.422837 24.944024 -34.472678 -37.475084 -0.70440558 -114.86503 
	-66.422837 24.944024 -32.721922 -22.710355 -0.70440558 -114.86503 -34.472678 -37.475084 
3.9e+009 -35.662409 -48.310864 -0.7145794 -127.31139 -33.864336 -33.727262 -67.538384 1.230949 
	-0.7145794 -127.31139 -35.662409 -48.310864 -67.538384 1.230949 -33.864336 -33.727262 
	-33.864336 -33.727262 -67.538384 1.230949 -35.662345 -48.310746 -0.71457904 -127.3114 
	-67.538384 1.230949 -33.864336 -33.727262 -0.71457904 -127.3114 -35.662345 -48.310746 
4e+009 -37.499027 -58.548356 -0.72464262 -139.75984 -35.655574 -44.139998 -69.268625 -22.085765 
	-0.72464262 -139.75984 -37.499027 -58.548356 -69.268625 -22.085765 -35.655574 -44.139998 
	-35.655574 -44.139998 -69.268625 -22.085765 -37.498973 -58.548249 -0.72464223 -139.75984 
	-69.268625 -22.085765 -35.655574 -44.139998 -0.72464223 -139.75984 -37.498973 -58.548249 
4.1e+009 -40.316668 -67.35077 -0.73477079 -152.21018 -38.429536 -53.111297 -71.909673 -44.477596 
	-0.73477079 -152.21018 -40.316668 -67.35077 -71.909673 -44.477596 -38.429536 -53.111297 
	-38.429536 -53.111297 -71.909673 -44.477596 -40.316627 -67.350696 -0.7347704 -152.21021 
	-71.909673 -44.477596 -38.429536 -53.111297 -0.7347704 -152.21021 -40.316627 -67.350696 
4.2e+009 -44.998017 -71.412276 -0.74510936 -164.66177 -43.068783 -57.334916 -76.237672 -63.996297 
	-0.74510936 -164.66177 -44.998017 -71.412276 -76.237672 -63.996297 -43.068783 -57.334916 
	-43.068783 -57.334916 -76.237672 -63.996297 -44.997979 -71.412168 -0.74510896 -164.66182 
	-76.237672 -63.996297 -43.068783 -57.334916 -0.74510896 -164.66182 -44.997979 -71.412168 
4.3e+009 -53.881011 -41.200494 -0.75574828 -177.1137 -51.911011 -27.272561 -85.185614 -64.140554 
	-0.75574828 -177.1137 -53.881011 -41.200494 -85.185614 -64.140554 -51.911011 -27.272561 
	-51.911011 -27.272561 -85.185614 -64.140554 -53.880988 -41.20035 -0.75574787 -177.11371 
	-85.185614 -64.140554 -51.911011 -27.272561 -0.75574787 -177.11371 -53.880988 -41.20035 
4.4e+009 -48.49497 39.087859 -0.76670634 170.4353 -46.483406 52.858431 -83.018277 27.407658 
	-0.76670634 170.4353 -48.49497 39.087859 -83.018277 27.407658 -46.483406 52.858431 
	-46.483406 52.858431 -83.018277 27.407658 -48.494884 39.08804 -0.76670595 170.43526 
	-83.018277 27.407658 -46.483406 52.858431 -0.76670595 170.43526 -48.494884 39.08804 
4.5e+009 -42.318609 41.917658 -0.77792937 157.98614 -40.26832 55.538574 -75.483896 19.432308 
	-0.77792937 157.98614 -42.318609 41.917658 -75.483896 19.432308 -40.26832 55.538574 
	-40.26832 55.538574 -75.483896 19.432308 -42.318533 41.917782 -0.77792892 157.98611 
	-75.483896 19.432308 -40.26832 55.538574 -0.77792892 157.98611 -42.318533 41.917782 
4.6e+009 -38.921481 34.552723 -0.78930091 145.53959 -36.833163 48.02888 -71.692249 -0.90013068 
	-0.78930091 145.53959 -38.921481 34.552723 -71.692249 -0.90013068 -36.833163 48.02888 
	-36.833163 48.02888 -71.692249 -0.90013068 -38.921408 34.552834 -0.78930047 145.53957 
	-71.692249 -0.90013068 -36.833163 48.02888 -0.78930047 145.53957 -38.921408 34.552834 
4.7e+009 -36.796653 24.859082 -0.80066498 133.09612 -34.671123 38.193063 -69.379347 -23.493446 
	-0.80066498 133.09612 -36.796653 24.859082 -69.379347 -23.493446 -34.671123 38.193063 
	-34.671123 38.193063 -69.379347 -23.493446 -36.796583 24.859185 -0.80066455 133.0961 
	-69.379347 -23.493446 -34.671123 38.193063 -0.80066455 133.0961 -36.796583 24.859185 
4.8e+009 -35.437998 14.313132 -0.81185513 120.65569 -33.276168 27.506656 -67.904559 -46.858274 
	-0.81185513 120.65569 -35.437998 14.313132 -67.904559 -46.858274 -33.276168 27.506656 
	-33.276168 27.506656 -67.904559 -46.858274 -35.43793 14.313229 -0.81185478 120.65566 
	-67.904559 -46.858274 -33.276168 27.506656 -0.81185478 120.65566 -35.43793 14.313229 
4.9e+009 -34.630958 3.3949591 -0.82272556 108.21768 -32.43383 16.449358 -67.012556 -70.557303 
	-0.82272556 108.21768 -34.630958 3.3949591 -67.012556 -70.557303 -32.43383 16.449358 
	-32.43383 16.449358 -67.012556 -70.557303 -34.630903 3.3950142 -0.82272522 108.21763 
	-67.012556 -70.557303 -32.43383 16.449358 -0.82272522 108.21763 -34.630903 3.3950142 
5e+009 -34.275786 -7.6798533 -0.83317744 95.781164 -32.044411 5.2368537 -66.586113 -94.401244 
	-0.83317744 95.781164 -34.275786 -7.6798533 -66.586113 -94.401244 -32.044411 5.2368537 
	-32.044411 5.2368537 -66.586113 -94.401244 -34.275734 -7.6797993 -0.83317703 95.781122 
	-66.586113 -94.401244 -32.044411 5.2368537 -0.83317703 95.781122 -34.275734 -7.6797993 
5.1e+009 -34.332031 -18.780518 -0.84317657 83.345089 -32.067551 -5.9997589 -66.575051 -118.28563 
	-0.84317657 83.345089 -34.332031 -18.780518 -66.575051 -118.28563 -32.067551 -5.9997589 
	-32.067551 -5.9997589 -66.575051 -118.28563 -34.331968 -18.78043 -0.84317614 83.345067 
	-66.575051 -118.28563 -32.067551 -5.9997589 -0.84317614 83.345067 -34.331968 -18.78043 
5.2e+009 -34.80085 -29.792896 -0.85275955 70.908463 -32.504395 -17.145694 -66.973066 -142.1243 
	-0.85275955 70.908463 -34.80085 -29.792896 -66.973066 -142.1243 -32.504395 -17.145694 
	-32.504395 -17.145694 -66.973066 -142.1243 -34.800789 -29.792811 -0.85275914 70.908441 
	-66.973066 -142.1243 -32.504395 -17.145694 -0.85275914 70.908441 -34.800789 -29.792811 
5.3e+009 -35.725205 -40.569843 -0.86202721 58.470352 -33.397903 -28.053139 -67.814221 -165.81989 
	-0.86202721 58.470352 -35.725205 -40.569843 -67.814221 -165.81989 -33.397903 -28.053139 
	-33.397903 -28.053139 -67.814221 -165.81989 -35.725146 -40.569762 -0.86202677 58.47033 
	-67.814221 -165.81989 -33.397903 -28.053139 -0.86202677 58.47033 -35.725146 -40.569762 
5.4e+009 -37.208639 -50.850351 -0.87112578 46.030116 -34.851537 -38.460413 -69.188339 170.79617 
	-0.87112578 46.030116 -37.208639 -50.850351 -69.188339 170.79617 -34.851537 -38.460413 
	-34.851537 -38.460413 -69.188339 170.79617 -37.208582 -50.850271 -0.87112536 46.030094 
	-69.188339 170.79617 -34.851537 -38.460413 -0.87112536 46.030094 -37.208582 -50.850271 
5.5e+009 -39.47207 -60.032087 -0.88022067 33.587754 -37.086105 -47.764679 -71.289784 148.09615 
	-0.88022067 33.587754 -39.47207 -60.032087 -71.289784 148.09615 -37.086105 -47.764679 
	-37.086105 -47.764679 -71.289784 148.09615 -39.472016 -60.032008 -0.88022025 33.587732 
	-71.289784 148.09615 -37.086105 -47.764679 -0.88022025 33.587732 -39.472016 -60.032008 
5.6e+009 -43.030404 -66.225248 -0.88946631 21.14375 -40.616386 -54.075681 -74.570861 127.17272 
	-0.88946631 21.14375 -43.030404 -66.225248 -74.570861 127.17272 -40.616386 -54.075681 
	-40.616386 -54.075681 -74.570861 127.17272 -43.030354 -66.225165 -0.88946589 21.143728 
	-74.570861 127.17272 -40.616386 -54.075681 -0.88946589 21.143728 -43.030354 -66.225165 
5.7e+009 -49.282081 -59.360733 -0.89897826 8.6987432 -46.840793 -47.322393 -80.372719 113.35931 
	-0.89897826 8.6987432 -49.282081 -59.360733 -80.372719 113.35931 -46.840793 -47.322393 
	-46.840793 -47.322393 -80.372719 113.35931 -49.28204 -59.360605 -0.89897783 8.6987209 
	-80.372719 113.35931 -46.840793 -47.322393 -0.89897783 8.6987209 -49.28204 -59.360605 
5.8e+009 -52.754287 16.460498 -0.90881239 -3.7463252 -50.284142 28.39132 -88.980874 170.9077 
	-0.90881239 -3.7463252 -52.754287 16.460498 -88.980874 170.9077 -50.284142 28.39132 
	-50.284142 28.39132 -88.980874 170.9077 -52.754219 16.460738 -0.9088119 -3.7463475 
	-88.980874 170.9077 -50.284142 28.39132 -0.9088119 -3.7463475 -52.754219 16.460738 
5.9e+009 -45.131453 42.050878 -0.91895511 -16.19029 -42.634917 53.866589 -79.209828 -154.92477 
	-0.91895511 -16.19029 -45.131453 42.050878 -79.209828 -154.92477 -42.634917 53.866589 
	-42.634917 53.866589 -79.209828 -154.92477 -45.131387 42.05098 -0.91895469 -16.190313 
	-79.209828 -154.92477 -42.634917 53.866589 -0.91895469 -16.190313 -45.131387 42.05098 
6e+009 -40.838371 38.622875 -0.92932691 -28.632223 -38.315704 50.331498 -74.115657 -170.92207 
	-0.92932691 -28.632223 -40.838371 38.622875 -74.115657 -170.92207 -38.315704 50.331498 
	-38.315704 50.331498 -74.115657 -170.92207 -40.838309 38.622958 -0.92932641 -28.632245 
	-74.115657 -170.92207 -38.315704 50.331498 -0.92932641 -28.632245 -40.838309 38.622958 
6.1e+009 -38.228547 30.286646 -0.93979776 -41.071653 -35.679994 41.889838 -71.185484 167.73363 
	-0.93979776 -41.071653 -38.228547 30.286646 -71.185484 167.73363 -35.679994 41.889838 
	-35.679994 41.889838 -71.185484 167.73363 -38.228488 30.286721 -0.93979727 -41.071675 
	-71.185484 167.73363 -35.679994 41.889838 -0.93979727 -41.071675 -38.228488 30.286721 
6.2e+009 -36.547639 20.39686 -0.95021147 -53.508258 -33.973558 31.895256 -69.325983 144.92057 
	-0.95021147 -53.508258 -36.547639 20.39686 -69.325983 144.92057 -33.973558 31.895256 
	-33.973558 31.895256 -69.325983 144.92057 -36.547565 20.396989 -0.95021104 -53.508241 
	-69.325983 144.92057 -33.973558 31.895256 -0.95021104 -53.508241 -36.547565 20.396989 
6.3e+009 -35.492811 9.8605642 -0.9604152 -65.942391 -32.89372 21.254296 -68.149898 121.52206 
	-0.9604152 -65.942391 -35.492811 9.8605642 -68.149898 121.52206 -32.89372 21.254296 
	-32.89372 21.254296 -68.149898 121.52206 -35.492719 9.8606881 -0.96041467 -65.942405 
	-68.149898 121.52206 -32.89372 21.254296 -0.96041467 -65.942405 -35.492719 9.8606881 
6.4e+009 -34.92462 -0.96509993 -0.97028687 -78.374641 -32.301151 10.324144 -67.486471 97.867927 
	-0.97028687 -78.374641 -34.92462 -0.96509993 -67.486471 97.867927 -32.301151 10.324144 
	-32.301151 10.324144 -67.486471 97.867927 -34.924567 -0.965039 -0.97028644 -78.374663 
	-67.486471 97.867927 -32.301151 10.324144 -0.97028644 -78.374663 -34.924567 -0.965039 
6.5e+009 -34.779603 -11.892869 -0.97975801 -90.805981 -32.132448 -0.70755841 -67.257128 74.103604 
	-0.97975801 -90.805981 -34.779603 -11.892869 -67.257128 74.103604 -32.132448 -0.70755841 
	-32.132448 -0.70755841 -67.257128 74.103604 -34.779551 -11.89281 -0.9797576 -90.806004 
	-67.257128 74.103604 -32.132448 -0.70755841 -0.9797576 -90.806004 -34.779551 -11.89281 
6.6e+009 -35.040484 -22.78705 -0.98882546 -103.23755 -32.370395 -11.704537 -67.434826 50.339982 
	-0.98882546 -103.23755 -35.040484 -22.78705 -67.434826 50.339982 -32.370395 -11.704537 
	-32.370395 -11.704537 -67.434826 50.339982 -35.040434 -22.786992 -0.98882496 -103.23757 
	-67.434826 50.339982 -32.370395 -11.704537 -0.98882496 -103.23757 -35.040434 -22.786992 
6.7e+009 -35.72912 -33.502855 -0.99755185 -115.67022 -33.036851 -22.521274 -68.032151 26.672907 
	-0.99755185 -115.67022 -35.72912 -33.502855 -68.032151 26.672907 -33.036851 -22.521274 
	-33.036851 -22.521274 -68.032151 26.672907 -35.729071 -33.502799 -0.99755134 -115.67024 
	-68.032151 26.672907 -33.036851 -22.521274 -0.99755134 -115.67024 -35.729071 -33.502799 
6.8e+009 -36.915207 -43.819262 -1.0060539 -128.10459 -34.201455 -32.93603 -69.107551 3.2492007 
	-1.0060539 -128.10459 -36.915207 -43.819262 -69.107551 3.2492007 -34.201455 -32.93603 
	-34.201455 -32.93603 -69.107551 3.2492007 -36.915148 -43.819212 -1.0060534 -128.10465 
	-69.107551 3.2492007 -34.201455 -32.93603 -1.0060534 -128.10465 -36.915148 -43.819212 
6.9e+009 -38.748903 -53.289286 -1.0144815 -140.54113 -36.014315 -42.501248 -70.791153 -19.662567 
	-1.0144815 -140.54113 -38.748903 -53.289286 -70.791153 -19.662567 -36.014315 -42.501248 
	-36.014315 -42.501248 -70.791153 -19.662567 -38.748857 -53.289232 -1.0144809 -140.54116 
	-70.791153 -19.662567 -36.014315 -42.501248 -1.0144809 -140.54116 -38.748857 -53.289232 
7e+009 -41.554827 -60.730658 -1.0229896 -152.97968 -38.799909 -50.034185 -73.366416 -41.387486 
	-1.0229896 -152.97968 -41.554827 -60.730658 -73.366416 -41.387486 -38.799909 -50.034185 
	-38.799909 -50.034185 -73.366416 -41.387486 -41.554778 -60.730597 -1.0229891 -152.97974 
	-73.366416 -41.387486 -38.799909 -50.034185 -1.0229891 -152.97974 -41.554778 -60.730597 
7.1e+009 -46.118821 -61.589102 -1.0317105 -165.41972 -43.344032 -50.979696 -77.549712 -59.505661 
	-1.0317105 -165.41972 -46.118821 -61.589102 -77.549712 -59.505661 -43.344032 -50.979696 
	-43.344032 -50.979696 -77.549712 -59.505661 -46.118784 -61.58903 -1.03171 -165.41975 
	-77.549712 -59.505661 -43.344032 -50.979696 -1.03171 -165.41975 -46.118784 -61.58903 
7.2e+009 -53.053288 -25.793535 -1.0407289 -177.86027 -50.258139 -15.261678 -85.540753 -56.29107 
	-1.0407289 -177.86027 -53.053288 -25.793535 -85.540753 -56.29107 -50.258139 -15.261678 
	-50.258139 -15.261678 -85.540753 -56.29107 -53.053248 -25.793101 -1.0407284 -177.86032 
	-85.540753 -56.29107 -50.258139 -15.261678 -1.0407284 -177.86032 -53.053248 -25.793101 
7.3e+009 -48.385797 35.765595 -1.0500679 169.69956 -45.569855 46.203972 -83.99337 20.963451 
	-1.0500679 169.69956 -48.385797 35.765595 -83.99337 20.963451 -45.569855 46.203972 
	-45.569855 46.203972 -83.99337 20.963451 -48.385738 35.765712 -1.0500674 169.69954 
	-83.99337 20.963451 -45.569855 46.203972 -1.0500674 169.69954 -48.385738 35.765712 
7.4e+009 -42.945165 40.763022 -1.059684 157.26073 -40.110045 51.116629 -76.883588 17.098074 
	-1.059684 157.26073 -42.945165 40.763022 -76.883588 17.098074 -40.110045 51.116629 
	-40.110045 51.116629 -76.883588 17.098074 -42.945087 40.763102 -1.0596835 157.26068 
	-76.883588 17.098074 -40.110045 51.116629 -1.0596835 157.26068 -42.945087 40.763102 
7.5e+009 -39.727348 34.702717 -1.0694765 144.824 -36.872942 44.973966 -73.111548 -1.9019386 
	-1.0694765 144.824 -39.727348 34.702717 -73.111548 -1.9019386 -36.872942 44.973966 
	-36.872942 44.973966 -73.111548 -1.9019386 -39.727276 34.702772 -1.0694759 144.82395 
	-73.111548 -1.9019386 -36.872942 44.973966 -1.0694759 144.82395 -39.727276 34.702772 
7.6e+009 -37.671035 25.773632 -1.0793063 132.38981 -34.797442 35.962759 -70.783207 -23.84519 
	-1.0793063 132.38981 -37.671035 25.773632 -70.783207 -23.84519 -34.797442 35.962759 
	-34.797442 35.962759 -70.783207 -23.84519 -37.670974 25.773735 -1.0793058 132.38983 
	-70.783207 -23.84519 -34.797442 35.962759 -1.0793058 132.38983 -37.670974 25.773735 
7.7e+009 -36.344314 15.750591 -1.0890223 119.95818 -33.45178 25.857194 -69.287099 -46.815251 
	-1.0890223 119.95818 -36.344314 15.750591 -69.287099 -46.815251 -33.45178 25.857194 
	-33.45178 25.857194 -69.287099 -46.815251 -36.344253 15.750692 -1.0890218 119.95819 
	-69.287099 -46.815251 -33.45178 25.857194 -1.0890218 119.95819 -36.344253 15.750692 
7.8e+009 -35.553625 5.2393212 -1.098489 107.52852 -32.642521 15.262946 -68.371981 -70.228673 
	-1.098489 107.52852 -35.553625 5.2393212 -68.371981 -70.228673 -32.642521 15.262946 
	-32.642521 15.262946 -68.371981 -70.228673 -35.553563 5.23942 -1.0984885 107.52854 
	-68.371981 -70.228673 -32.642521 15.262946 -1.0984885 107.52854 -35.553563 5.23942 
7.9e+009 -35.207231 -5.4809103 -1.1076114 95.100154 -32.278032 4.4595568 -67.921845 -93.833745 
	-1.1076114 95.100154 -35.207231 -5.4809103 -67.921845 -93.833745 -32.278032 4.4595568 
	-32.278032 4.4595568 -67.921845 -93.833745 -35.207169 -5.4808136 -1.1076109 95.100171 
	-67.921845 -93.833745 -32.278032 4.4595568 -1.1076109 95.100171 -35.207169 -5.4808136 
8e+009 -35.268446 -16.238049 -1.116352 82.67218 -32.3217 -6.3803777 -67.886472 -117.5026 
	-1.116352 82.67218 -35.268446 -16.238049 -67.886472 -117.5026 -32.3217 -6.3803777 
	-32.3217 -6.3803777 -67.886472 -117.5026 -35.268385 -16.237954 -1.1163515 82.672197 
	-67.886472 -117.5026 -32.3217 -6.3803777 -1.1163515 82.672197 -35.268385 -16.237954 
8.1e+009 -35.740344 -26.880924 -1.1247376 70.24356 -32.776622 -17.104996 -68.25899 -141.11979 
	-1.1247376 70.24356 -35.740344 -26.880924 -68.25899 -141.11979 -32.776622 -17.104996 
	-32.776622 -17.104996 -68.25899 -141.11979 -35.74029 -26.880895 -1.124737 70.243506 
	-68.25899 -141.11979 -32.776622 -17.104996 -1.124737 70.243506 -35.74029 -26.880895 
8.2e+009 -36.666818 -37.21468 -1.1328539 57.813413 -33.686662 -27.518637 -69.072713 -164.55881 
	-1.1328539 57.813413 -36.666818 -37.21468 -69.072713 -164.55881 -33.686662 -27.518637 
	-33.686662 -27.518637 -69.072713 -164.55881 -36.666767 -37.214651 -1.1328534 57.81336 
	-69.072713 -164.55881 -33.686662 -27.518637 -1.1328534 57.81336 -36.666767 -37.214651 
8.3e+009 -38.150789 -46.894477 -1.1408301 45.381281 -35.154689 -37.275858 -70.413697 172.3815 
	-1.1408301 45.381281 -38.150789 -46.894477 -70.413697 172.3815 -35.154689 -37.275858 
	-35.154689 -37.275858 -70.413697 172.3815 -38.15071 -46.894405 -1.1408296 45.381236 
	-70.413697 172.3815 -35.154689 -37.275858 -1.1408296 45.381236 -38.15071 -46.894405 
8.4e+009 -40.407152 -55.128765 -1.1488147 32.947135 -37.395511 -45.584608 -72.470284 150.163 
	-1.1488147 32.947135 -40.407152 -55.128765 -72.470284 150.163 -37.395511 -45.584608 
	-37.395511 -45.584608 -72.470284 150.163 -40.407115 -55.128725 -1.1488141 32.947113 
	-72.470284 150.163 -37.395511 -45.584608 -1.1488141 32.947113 -40.407115 -55.128725 
8.5e+009 -43.911066 -59.472521 -1.1569483 20.51129 -40.884176 -49.999272 -75.665166 130.08426 
	-1.1569483 20.51129 -43.911066 -59.472521 -75.665166 130.08426 -40.884176 -49.999272 
	-40.884176 -49.999272 -75.665166 130.08426 -43.911029 -59.472447 -1.1569478 20.511206 
	-75.665166 130.08426 -40.884176 -49.999272 -1.1569478 20.511206 -43.911029 -59.472447 
8.6e+009 -49.636623 -48.106903 -1.1653383 8.0741591 -46.594552 -38.69847 -81.167461 118.19602 
	-1.1653383 8.0741591 -49.636623 -48.106903 -81.167461 118.19602 -46.594552 -38.69847 
	-46.594552 -38.69847 -81.167461 118.19602 -49.636596 -48.106802 -1.1653377 8.0741366 
	-81.167461 118.19602 -46.594552 -38.69847 -1.1653377 8.0741366 -49.636596 -48.106802 
8.7e+009 -51.61031 15.89225 -1.1740386 -4.3629463 -48.551124 25.232704 -88.36457 166.82671 
	-1.1740386 -4.3629463 -51.61031 15.89225 -88.36457 166.82671 -48.551124 25.232704 
	-48.551124 25.232704 -88.36457 166.82671 -51.610207 15.892738 -1.174038 -4.3630303 
	-88.36457 166.82671 -48.551124 25.232704 -1.174038 -4.3630303 -51.610207 15.892738 
8.8e+009 -45.371296 39.792425 -1.1830403 -16.799319 -42.29733 49.05935 -80.283701 -158.81361 
	-1.1830403 -16.799319 -45.371296 39.792425 -80.283701 -158.81361 -42.29733 49.05935 
	-42.29733 49.05935 -80.283701 -158.81361 -45.371247 39.792497 -1.1830398 -16.799341 
	-80.283701 -158.81361 -42.29733 49.05935 -1.1830398 -16.799341 -45.371247 39.792497 
8.9e+009 -41.382199 37.878021 -1.192274 -29.234023 -38.293255 47.078012 -75.289627 -172.72582 
	-1.192274 -29.234023 -41.382199 37.878021 -75.289627 -172.72582 -38.293255 47.078012 
	-38.293255 47.078012 -75.289627 -172.72582 -41.382107 37.878106 -1.1922734 -29.234068 
	-75.289627 -172.72582 -38.293255 47.078012 -1.1922734 -29.234068 -41.382107 37.878106 
9e+009 -38.87455 30.429599 -1.2016227 -41.666527 -35.770552 39.563043 -72.360484 166.78126 
	-1.2016227 -41.666527 -38.87455 30.429599 -72.360484 166.78126 -35.770552 39.563043 
	-35.770552 39.563043 -72.360484 166.78126 -38.874463 30.429669 -1.2016221 -41.666572 
	-72.360484 166.78126 -35.770552 39.563043 -1.2016221 -41.666572 -38.874463 30.429669 
9.1e+009 -37.240117 21.120867 -1.2109443 -54.09675 -34.121128 30.187228 -70.487617 144.44942 
	-1.2109443 -54.09675 -37.240117 21.120867 -70.487617 144.44942 -34.121128 30.187228 
	-34.121128 30.187228 -70.487617 144.44942 -37.240064 21.120951 -1.2109438 -54.096733 
	-70.487617 144.44942 -34.121128 30.187228 -1.2109438 -54.096733 -37.240064 21.120951 
9.2e+009 -36.210187 11.018375 -1.2200976 -66.524626 -33.076413 20.016822 -69.295178 121.37692 
	-1.2200976 -66.524626 -36.210187 11.018375 -69.295178 121.37692 -33.076413 20.016822 
	-33.076413 20.016822 -69.295178 121.37692 -36.210134 11.018458 -1.220097 -66.52461 
	-69.295178 121.37692 -33.076413 20.016822 -1.220097 -66.52461 -36.210134 11.018458 
9.3e+009 -35.656759 0.55529272 -1.2289683 -78.95088 -32.508521 9.4851565 -68.614265 97.970299 
	-1.2289683 -78.95088 -35.656759 0.55529272 -68.614265 97.970299 -32.508521 9.4851565 
	-32.508521 9.4851565 -68.614265 97.970299 -35.65668 0.55534758 -1.2289677 -78.950925 
	-68.614265 97.970299 -32.508521 9.4851565 -1.2289677 -78.950925 -35.65668 0.55534758 
9.4e+009 -35.521161 -10.036738 -1.2374904 -91.376555 -32.358888 -1.1755977 -68.366756 74.43196 
	-1.2374904 -91.376555 -35.521161 -10.036738 -68.366756 74.43196 -32.358888 -1.1755977 
	-32.358888 -1.1755977 -68.366756 74.43196 -35.521108 -10.036659 -1.2374898 -91.376538 
	-68.366756 74.43196 -32.358888 -1.1755977 -1.2374898 -91.376538 -35.521108 -10.036659 
9.5e+009 -35.788459 -20.587217 -1.2456569 -103.8022 -32.612588 -11.794341 -68.525023 50.881657 
	-1.2456569 -103.8022 -35.788459 -20.587217 -68.525023 50.881657 -32.612588 -11.794341 
	-32.612588 -11.794341 -68.525023 50.881657 -35.788384 -20.587167 -1.2456563 -103.80224 
	-68.525023 50.881657 -32.612588 -11.794341 -1.2456563 -103.80224 -35.788384 -20.587167 
9.6e+009 -36.481424 -30.913994 -1.2535219 -116.22901 -33.292453 -22.188138 -69.101173 27.447665 
	-1.2535219 -116.22901 -36.481424 -30.913994 -69.101173 27.447665 -33.292453 -22.188138 
	-33.292453 -22.188138 -69.101173 27.447665 -36.48137 -30.91392 -1.2535214 -116.22899 
	-69.101173 27.447665 -33.292453 -22.188138 -1.2535214 -116.22899 -36.48137 -30.91392 
9.7e+009 -37.669445 -40.738794 -1.2611901 -128.65745 -34.467761 -32.078042 -70.151141 4.2990908 
	-1.2611901 -128.65745 -37.669445 -40.738794 -70.151141 4.2990908 -34.467761 -32.078042 
	-34.467761 -32.078042 -70.151141 4.2990908 -37.669375 -40.738745 -1.2611895 -128.6575 
	-70.151141 4.2990908 -34.467761 -32.078042 -1.2611895 -128.6575 -37.669375 -40.738745 
9.8e+009 -39.498875 -49.501122 -1.2687971 -141.08795 -36.284826 -40.902981 -71.800723 -18.241445 
	-1.2687971 -141.08795 -39.498875 -49.501122 -71.800723 -18.241445 -36.284826 -40.902981 
	-36.284826 -40.902981 -71.800723 -18.241445 -39.49883 -49.501111 -1.2687966 -141.08803 
	-71.800723 -18.241445 -36.284826 -40.902981 -1.2687966 -141.08803 -39.49883 -49.501111 
9.9e+009 -42.27497 -55.734852 -1.2764854 -153.52054 -39.048795 -47.196323 -74.317696 -39.390568 
	-1.2764854 -153.52054 -42.27497 -55.734852 -74.317696 -39.390568 -39.048795 -47.196323 
	-39.048795 -47.196323 -74.317696 -39.390568 -42.274909 -55.734789 -1.2764848 -153.52059 
	-74.317696 -39.390568 -39.048795 -47.196323 -1.2764848 -153.52059 -42.274909 -55.734789 
1e+010 -46.649588 -54.036584 -1.2843769 -165.9544 -43.41141 -45.553478 -78.357207 -56.399799 
	-1.2843769 -165.9544 -46.649588 -54.036584 -78.357207 -56.399799 -43.41141 -45.553478 
	-43.41141 -45.553478 -78.357207 -56.399799 -46.649567 -54.036455 -1.2843763 -165.95448 
	-78.357207 -56.399799 -43.41141 -45.553478 -1.2843763 -165.95448 -46.649567 -54.036455 
1.01e+010 -52.117134 -17.606453 -1.2925518 -178.38895 -48.865803 -9.1725688 -85.541593 -51.74349 
	-1.2925518 -178.38895 -52.117134 -17.606453 -85.541593 -51.74349 -48.865803 -9.1725688 
	-48.865803 -9.1725688 -85.541593 -51.74349 -52.117094 -17.605925 -1.2925512 -178.38903 
	-85.541593 -51.74349 -48.865803 -9.1725688 -1.2925512 -178.38903 -52.117094 -17.605925 
1.02e+010 -48.150208 32.944429 -1.3010331 169.17666 -44.885831 41.312849 -84.569093 14.967855 
	-1.3010331 169.17666 -48.150208 32.944429 -84.569093 14.967855 -44.885831 41.312849 
	-44.885831 41.312849 -84.569093 14.967855 -48.150116 32.944596 -1.3010324 169.17661 
	-84.569093 14.967855 -44.885831 41.312849 -1.3010324 169.17661 -48.150116 32.944596 
1.03e+010 -43.27037 39.241448 -1.3097828 156.74353 -39.994146 47.552739 -77.878224 14.382864 
	-1.3097828 156.74353 -43.27037 39.241448 -77.878224 14.382864 -39.994146 47.552739 
	-39.994146 47.552739 -77.878224 14.382864 -43.270287 39.24151 -1.3097822 156.74345 
	-77.878224 14.382864 -39.994146 47.552739 -1.3097822 156.74345 -43.270287 39.24151 
1.04e+010 -40.209532 34.219249 -1.31871 144.31221 -36.921157 42.475259 -74.134667 -3.3912631 
	-1.31871 144.31221 -40.209532 34.219249 -74.134667 -3.3912631 -36.921157 42.475259 
	-36.921157 42.475259 -74.134667 -3.3912631 -40.209452 34.219307 -1.3187094 144.31216 
	-74.134667 -3.3912631 -36.921157 42.475259 -1.3187094 144.31216 -40.209452 34.219307 
1.05e+010 -38.2179 25.947974 -1.3276873 131.88321 -34.917287 34.14822 -71.800808 -24.734677 
	-1.3276873 131.88321 -38.2179 25.947974 -71.800808 -24.734677 -34.917287 34.14822 
	-34.917287 34.14822 -71.800808 -24.734677 -38.217824 25.948021 -1.3276867 131.88316 
	-71.800808 -24.734677 -34.917287 34.14822 -1.3276867 131.88316 -38.217824 25.948021 
1.06e+010 -36.924371 16.394494 -1.336575 119.45642 -33.61161 24.538002 -70.292236 -47.325109 
	-1.336575 119.45642 -36.924371 16.394494 -70.292236 -47.325109 -33.61161 24.538002 
	-33.61161 24.538002 -70.292236 -47.325109 -36.924297 16.394538 -1.3365743 119.45638 
	-70.292236 -47.325109 -33.61161 24.538002 -1.3365743 119.45638 -36.924297 16.394538 
1.07e+010 -36.153104 6.2592375 -1.3452469 107.03134 -32.828409 14.345055 -69.362895 -70.456184 
	-1.3452469 107.03134 -36.153104 6.2592375 -69.362895 -70.456184 -32.828409 14.345055 
	-32.828409 14.345055 -69.362895 -70.456184 -36.153032 6.2592767 -1.3452463 107.03129 
	-69.362895 -70.456184 -32.828409 14.345055 -1.3452463 107.03129 -36.153032 6.2592767 
1.08e+010 -35.819104 -4.1271789 -1.3536134 94.607526 -32.482803 3.9003448 -68.897773 -93.831071 
	-1.3536134 94.607526 -35.819104 -4.1271789 -68.897773 -93.831071 -32.482803 3.9003448 
	-32.482803 3.9003448 -68.897773 -93.831071 -35.819035 -4.1271411 -1.3536127 94.607481 
	-68.897773 -93.831071 -32.482803 3.9003448 -1.3536127 94.607481 -35.819035 -4.1271411 
1.09e+010 -35.888689 -14.558111 -1.3616374 82.184028 -32.541149 -6.5888586 -68.846663 -117.28269 
	-1.3616374 82.184028 -35.888689 -14.558111 -68.846663 -117.28269 -32.541149 -6.5888586 
	-32.541149 -6.5888586 -68.846663 -117.28269 -35.888622 -14.558076 -1.3616369 82.183983 
	-68.846663 -117.28269 -32.541149 -6.5888586 -1.3616369 82.183983 -35.888622 -14.558076 
1.1e+010 -36.36618 -24.8502 -1.3693418 69.759682 -33.007823 -16.938479 -69.201327 -140.68779 
	-1.3693418 69.759682 -36.36618 -24.8502 -69.201327 -140.68779 -33.007823 -16.938479 
	-33.007823 -16.938479 -69.201327 -140.68779 -36.366132 -24.850136 -1.3693412 69.759698 
	-69.201327 -140.68779 -33.007823 -16.938479 -1.3693412 69.759698 -36.366132 -24.850136 
1.11e+010 -37.295457 -34.766046 -1.3768036 57.334134 -33.92665 -26.910425 -69.994191 -163.8843 
	-1.3768036 57.334134 -37.295457 -34.766046 -69.994191 -163.8843 -33.92665 -26.910425 
	-33.92665 -26.910425 -69.994191 -163.8843 -37.295394 -34.766012 -1.376803 57.334089 
	-69.994191 -163.8843 -33.92665 -26.910425 -1.376803 57.334089 -37.295394 -34.766012 
1.12e+010 -38.777077 -43.887586 -1.384141 44.906713 -35.39813 -36.085957 -71.308629 173.36265 
	-1.384141 44.906713 -38.777077 -43.887586 -71.308629 173.36265 -35.39813 -36.085957 
	-35.39813 -36.085957 -71.308629 173.36265 -38.777017 -43.88755 -1.3841403 44.906668 
	-71.308629 173.36265 -35.39813 -36.085957 -1.3841403 44.906668 -38.777017 -43.88755 
1.13e+010 -41.015471 -51.262659 -1.3914909 32.477317 -37.626605 -43.512437 -73.322732 151.57189 
	-1.3914909 32.477317 -41.015471 -51.262659 -73.322732 151.57189 -37.626605 -43.512437 
	-37.626605 -43.512437 -73.322732 151.57189 -41.015415 -51.262617 -1.3914903 32.477272 
	-73.322732 151.57189 -37.626605 -43.512437 -1.3914903 32.477272 -41.015415 -51.262617 
1.14e+010 -44.431863 -54.022892 -1.3989838 20.04623 -41.033193 -46.320802 -76.43138 132.21111 
	-1.3989838 20.04623 -44.431863 -54.022892 -76.43138 132.21111 -41.033193 -46.320802 
	-41.033193 -46.320802 -76.43138 132.21111 -44.431813 -54.022826 -1.3989832 20.046185 
	-76.43138 132.21111 -41.033193 -46.320802 -1.3989832 20.046185 -44.431813 -54.022826 
1.15e+010 -49.587773 -39.831214 -1.4067201 7.6139334 -46.178985 -32.171596 -81.636466 121.69733 
	-1.4067201 7.6139334 -49.587773 -39.831214 -81.636466 121.69733 -46.178985 -32.171596 
	-46.178985 -32.171596 -81.636466 121.69733 -49.587731 -39.831034 -1.4067194 7.6138883 
	-81.636466 121.69733 -46.178985 -32.171596 -1.4067194 7.6138883 -49.587731 -39.831034 
1.16e+010 -50.75292 15.143908 -1.4147508 -4.8184579 -47.3323 22.754081 -87.869149 163.39017 
	-1.4147508 -4.8184579 -50.75292 15.143908 -87.869149 163.39017 -47.3323 22.754081 
	-47.3323 22.754081 -87.869149 163.39017 -50.752841 15.144163 -1.4147501 -4.818503 
	-87.869149 163.39017 -47.3323 22.754081 -1.4147501 -4.818503 -50.752841 15.144163 
1.17e+010 -45.454219 37.592955 -1.4230693 -17.250245 -42.023876 45.150205 -81.079987 -162.78088 
	-1.4230693 -17.250245 -45.454219 37.592955 -81.079987 -162.78088 -42.023876 45.150205 
	-42.023876 45.150205 -81.079987 -162.78088 -45.454138 37.593051 -1.4230687 -17.250291 
	-81.079987 -162.78088 -42.023876 45.150205 -1.4230687 -17.250291 -45.454138 37.593051 
1.18e+010 -41.724806 36.82669 -1.4316126 -29.680651 -38.284509 44.336729 -76.198693 -174.81012 
	-1.4316126 -29.680651 -41.724806 36.82669 -76.198693 -174.81012 -38.284509 44.336729 
	-38.284509 44.336729 -76.198693 -174.81012 -41.724732 36.826745 -1.4316119 -29.680697 
	-76.198693 -174.81012 -38.284509 44.336729 -1.4316119 -29.680697 -41.724732 36.826745 
1.19e+010 -39.309938 30.134763 -1.4402728 -42.108915 -35.85946 37.597656 -73.275132 165.5128 
	-1.4402728 -42.108915 -39.309938 30.134763 -73.275132 165.5128 -35.85946 37.597656 
	-35.85946 37.597656 -73.275132 165.5128 -39.309867 30.134802 -1.4402722 -42.10896 
	-73.275132 165.5128 -35.85946 37.597656 -1.4402722 -42.10896 -39.309867 30.134802 
1.2e+010 -37.719407 21.344772 -1.4489181 -54.535044 -34.258737 28.759548 -71.394234 143.63258 
	-1.4489181 -54.535044 -37.719407 21.344772 -71.394234 143.63258 -34.258737 28.759548 
	-34.258737 28.759548 -71.394234 143.63258 -37.719339 21.344806 -1.4489175 -54.535089 
	-71.394234 143.63258 -34.258737 28.759548 -1.4489175 -54.535089 -37.719339 21.344806 
1.21e+010 -36.714022 11.63996 -1.4574172 -66.959104 -33.243255 19.005509 -70.189701 120.88121 
	-1.4574172 -66.959104 -36.714022 11.63996 -70.189701 120.88121 -33.243255 19.005509 
	-33.243255 19.005509 -70.189701 120.88121 -36.713957 11.639989 -1.4574165 -66.959149 
	-70.189701 120.88121 -33.243255 19.005509 -1.4574165 -66.959149 -36.713957 11.639989 
1.22e+010 -36.17579 1.5149507 -1.465663 -79.381892 -32.695172 8.8303597 -69.495881 97.728274 
	-1.465663 -79.381892 -36.17579 1.5149507 -69.495881 97.728274 -32.695172 8.8303597 
	-32.695172 8.8303597 -69.495881 97.728274 -36.175726 1.514976 -1.4656624 -79.381937 
	-69.495881 97.728274 -32.695172 8.8303597 -1.4656624 -79.381937 -36.175726 1.514976 
1.23e+010 -36.050215 -8.760446 -1.4735922 -91.803846 -32.560067 -1.4955731 -69.234467 74.400453 
	-1.4735922 -91.803846 -36.050215 -8.760446 -69.234467 74.400453 -32.560067 -1.4955731 
	-32.560067 -1.4955731 -69.234467 74.400453 -36.050154 -8.7604216 -1.4735916 -91.803892 
	-69.234467 74.400453 -32.560067 -1.4955731 -1.4735916 -91.803892 -36.050154 -8.7604216 
1.24e+010 -36.324124 -18.986069 -1.4811974 -104.22607 -32.824777 -11.771409 -69.377687 51.061044 
	-1.4811974 -104.22607 -36.324124 -18.986069 -69.377687 51.061044 -32.824777 -11.771409 
	-32.824777 -11.771409 -69.377687 51.061044 -36.324022 -18.985996 -1.4811968 -104.22609 
	-69.377687 51.061044 -32.824777 -11.771409 -1.4811968 -104.22609 -36.324022 -18.985996 
1.25e+010 -37.020661 -28.945831 -1.4885272 -116.64927 -33.512502 -21.78037 -69.935991 27.84607 
	-1.4885272 -116.64927 -37.020661 -28.945831 -69.935991 27.84607 -33.512502 -21.78037 
	-33.512502 -21.78037 -69.935991 27.84607 -37.020574 -28.945726 -1.4885265 -116.64924 
	-69.935991 27.84607 -33.512502 -21.78037 -1.4885265 -116.64924 -37.020574 -28.945726 
1.26e+010 -38.207826 -38.310715 -1.4956779 -129.07424 -34.69115 -31.192766 -70.963442 4.955901 
	-1.4956779 -129.07424 -38.207826 -38.310715 -70.963442 4.955901 -34.69115 -31.192766 
	-34.69115 -31.192766 -70.963442 4.955901 -38.207739 -38.310617 -1.4956773 -129.0742 
	-70.963442 4.955901 -34.69115 -31.192766 -1.4956773 -129.0742 -38.207739 -38.310617 
1.27e+010 -40.025918 -46.421325 -1.5027753 -141.50096 -36.500944 -39.348634 -72.580953 -17.242102 
	-1.5027753 -141.50096 -40.025918 -46.421325 -72.580953 -17.242102 -36.500944 -39.348634 
	-36.500944 -39.348634 -72.580953 -17.242102 -40.02583 -46.421234 -1.5027747 -141.50093 
	-72.580953 -17.242102 -36.500944 -39.348634 -1.5027747 -141.50093 -40.02583 -46.421234 
1.28e+010 -42.754621 -51.581585 -1.5099517 -153.9295 -39.221471 -44.551386 -75.042367 -37.871879 
	-1.5099517 -153.9295 -42.754621 -51.581585 -75.042367 -37.871879 -39.221471 -44.551386 
	-39.221471 -44.551386 -75.042367 -37.871879 -42.754574 -51.581545 -1.509951 -153.92954 
	-75.042367 -37.871879 -39.221471 -44.551386 -1.509951 -153.92954 -42.754574 -51.581545 
1.29e+010 -46.899253 -47.881085 -1.5173213 -166.35946 -43.357866 -40.889304 -78.933023 -53.986242 
	-1.5173213 -166.35946 -46.899253 -47.881085 -78.933023 -53.986242 -43.357866 -40.889304 
	-43.357866 -40.889304 -78.933023 -53.986242 -46.899213 -47.88099 -1.5173206 -166.35951 
	-78.933023 -53.986242 -43.357866 -40.889304 -1.5173206 -166.35951 -46.899213 -47.88099 
1.3e+010 -51.289812 -12.679254 -1.5249594 -178.79008 -47.738809 -5.7226097 -85.437853 -48.844925 
	-1.5249594 -178.79008 -51.289812 -12.679254 -85.437853 -48.844925 -47.738809 -5.7226097 
	-47.738809 -5.7226097 -85.437853 -48.844925 -51.289762 -12.678989 -1.5249587 -178.79012 
	-85.437853 -48.844925 -47.738809 -5.7226097 -1.5249587 -178.79012 -51.289762 -12.678989 
1.31e+010 -47.892531 30.515399 -1.5328884 168.77938 -44.332361 37.422362 -84.945975 9.4496143 
	-1.5328884 168.77938 -47.892531 30.515399 -84.945975 9.4496143 -44.332361 37.422362 
	-44.332361 37.422362 -84.945975 9.4496143 -47.892455 30.515539 -1.5328877 168.77933 
	-84.945975 9.4496143 -44.332361 37.422362 -1.5328877 168.77933 -47.892455 30.515539 
1.32e+010 -43.468258 37.646163 -1.5410741 156.34995 -39.899901 44.510893 -78.676088 11.55665 
	-1.5410741 156.34995 -43.468258 37.646163 -78.676088 11.55665 -39.899901 44.510893 
	-39.899901 44.510893 -78.676088 11.55665 -43.468187 37.646224 -1.5410734 156.34991 
	-78.676088 11.55665 -39.899901 44.510893 -1.5410734 156.34991 -43.468187 37.646224 
1.33e+010 -40.548531 33.489483 -1.5494322 143.92224 -36.971619 40.313665 -74.969008 -5.0636684 
	-1.5494322 143.92224 -40.548531 33.489483 -74.969008 -5.0636684 -36.971619 40.313665 
	-36.971619 40.313665 -74.969008 -5.0636684 -40.548464 33.48952 -1.5494315 143.9222 
	-74.969008 -5.0636684 -36.971619 40.313665 -1.5494315 143.9222 -40.548464 33.48952 
1.34e+010 -38.616727 25.801849 -1.5578444 131.49647 -35.031101 32.584759 -72.633199 -25.828365 
	-1.5578444 131.49647 -38.616727 25.801849 -72.633199 -25.828365 -35.031101 32.584759 
	-35.031101 32.584759 -72.633199 -25.828365 -38.616638 25.801848 -1.5578437 131.49636 
	-72.633199 -25.828365 -35.031101 32.584759 -1.5578437 131.49636 -38.616638 25.801848 
1.35e+010 -37.354454 16.677581 -1.56618 119.07286 -33.76016 23.418042 -71.115258 -48.050619 
	-1.56618 119.07286 -37.354454 16.677581 -71.115258 -48.050619 -33.76016 23.418042 
	-33.76016 23.418042 -71.115258 -48.050619 -37.354371 16.677569 -1.5661793 119.07275 
	-71.115258 -48.050619 -33.76016 23.418042 -1.5661793 119.07275 -37.354371 16.677569 
1.36e+010 -36.601717 6.8922965 -1.5743209 106.65092 -32.998922 13.589206 -70.174649 -70.915405 
	-1.5743209 106.65092 -36.601717 6.8922965 -70.174649 -70.915405 -32.998922 13.589206 
	-32.998922 13.589206 -70.174649 -70.915405 -36.601658 6.892314 -1.5743202 106.65087 
	-70.174649 -70.915405 -32.998922 13.589206 -1.5743202 106.65087 -36.601658 6.892314 
1.37e+010 -36.279554 -3.180267 -1.5821826 94.230049 -32.668503 3.4723522 -69.697116 -94.064092 
	-1.5821826 94.230049 -36.279554 -3.180267 -69.697116 -94.064092 -32.668503 3.4723522 
	-32.668503 3.4723522 -69.697116 -94.064092 -36.279497 -3.1802517 -1.5821819 94.230004 
	-69.697116 -94.064092 -32.668503 3.4723522 -1.5821819 94.230004 -36.279497 -3.1802517 
1.38e+010 -36.356804 -13.302832 -1.5897296 81.809439 -32.737808 -6.6946272 -69.632321 -117.31122 
	-1.5897296 81.809439 -36.356804 -13.302832 -69.632321 -117.31122 -32.737808 -6.6946272 
	-32.737808 -6.6946272 -69.632321 -117.31122 -36.356733 -13.302854 -1.5897289 81.809332 
	-69.632321 -117.31122 -32.737808 -6.6946272 -1.5897289 81.809332 -36.356733 -13.302854 
1.39e+010 -36.838655 -23.263021 -1.5969819 69.388044 -33.212047 -16.698565 -69.971922 -140.50209 
	-1.5969819 69.388044 -36.838655 -23.263021 -69.971922 -140.50209 -33.212047 -16.698565 
	-33.212047 -16.698565 -69.971922 -140.50209 -36.838601 -23.263008 -1.5969813 69.387999 
	-69.971922 -140.50209 -33.212047 -16.698565 -1.5969813 69.387999 -36.838601 -23.263008 
1.4e+010 -37.768302 -32.785491 -1.6040109 56.965494 -34.134383 -26.2635 -70.745287 -163.47226 
	-1.6040109 56.965494 -37.768302 -32.785491 -70.745287 -163.47226 -34.134383 -26.2635 
	-34.134383 -26.2635 -70.745287 -163.47226 -37.76824 -32.78551 -1.6040102 56.965388 
	-70.745287 -163.47226 -34.134383 -26.2635 -1.6040102 56.965388 -37.76824 -32.78551 
1.41e+010 -39.242692 -41.387238 -1.6109264 44.541145 -35.601698 -34.905759 -72.033363 174.0571 
	-1.6109264 44.541145 -39.242692 -41.387238 -72.033363 174.0571 -35.601698 -34.905759 
	-35.601698 -34.905759 -72.033363 174.0571 -39.242635 -41.387247 -1.6109257 44.541038 
	-72.033363 174.0571 -35.601698 -34.905759 -1.6109257 44.541038 -39.242635 -41.387247 
1.42e+010 -41.452799 -47.980844 -1.6178563 32.114755 -37.804864 -41.537425 -74.006929 152.66428 
	-1.6178563 32.114755 -41.452799 -47.980844 -74.006929 152.66428 -37.804864 -41.537425 
	-37.804864 -41.537425 -74.006929 152.66428 -41.452754 -47.980819 -1.6178556 32.11471 
	-74.006929 152.66428 -37.804864 -41.537425 -1.6178556 32.11471 -41.452754 -47.980819 
1.43e+010 -44.758594 -49.393025 -1.6249226 19.686927 -41.103725 -42.984495 -77.029827 133.93051 
	-1.6249226 19.686927 -44.758594 -49.393025 -77.029827 133.93051 -41.103725 -42.984495 
	-41.103725 -42.984495 -77.029827 133.93051 -44.758555 -49.392973 -1.624922 19.686882 
	-77.029827 133.93051 -41.103725 -42.984495 -1.624922 19.686882 -44.758555 -49.392973 
1.44e+010 -49.368644 -33.564053 -1.6322196 7.2580962 -45.706295 -27.185422 -81.946741 124.40568 
	-1.6322196 7.2580962 -49.368644 -33.564053 -81.946741 124.40568 -45.706295 -27.185422 
	-45.706295 -27.185422 -81.946741 124.40568 -49.368615 -33.563712 -1.6322189 7.2579894 
	-81.946741 124.40568 -45.706295 -27.185422 -1.6322189 7.2579894 -49.368615 -33.563712 
1.45e+010 -50.067016 14.366932 -1.6397959 -5.1710791 -46.395781 20.706837 -87.457187 160.36753 
	-1.6397959 -5.1710791 -50.067016 14.366932 -87.457187 160.36753 -46.395781 20.706837 
	-46.395781 20.706837 -87.457187 160.36753 -50.066951 14.367144 -1.6397951 -5.1711243 
	-87.457187 160.36753 -46.395781 20.706837 -1.6397951 -5.1711243 -50.066951 14.367144 
1.46e+010 -45.46781 35.529121 -1.6476458 -17.599573 -41.78954 41.828103 -81.719048 -166.71632 
	-1.6476458 -17.599573 -45.46781 35.529121 -81.719048 -166.71632 -41.78954 41.828103 
	-41.78954 41.828103 -81.719048 -166.71632 -45.467705 35.529249 -1.6476451 -17.59968 
	-81.719048 -166.71632 -41.78954 41.828103 -1.6476451 -17.59968 -45.467705 35.529249 
1.47e+010 -41.967623 35.66978 -1.655711 -30.026964 -38.282156 41.932976 -76.963223 -177.00183 
	-1.655711 -30.026964 -41.967623 35.66978 -76.963223 -177.00183 -38.282156 41.932976 
	-38.282156 41.932976 -76.963223 -177.00183 -41.96753 35.669812 -1.6557103 -30.027071 
	-76.963223 -177.00183 -38.282156 41.932976 -1.6557103 -30.027071 -41.96753 35.669812 
1.48e+010 -39.638326 29.641397 -1.6638909 -42.452337 -35.945386 35.868809 -74.049674 164.10614 
	-1.6638909 -42.452337 -39.638326 29.641397 -74.049674 164.10614 -35.945386 35.868809 
	-35.945386 35.868809 -74.049674 164.10614 -39.638241 29.641395 -1.6638902 -42.452444 
	-74.049674 164.10614 -35.945386 35.868809 -1.6638902 -42.452444 -39.638241 29.641395 
1.49e+010 -38.088816 21.323833 -1.6720623 -54.875786 -34.388327 27.514439 -72.162176 142.68088 
	-1.6720623 -54.875786 -38.088816 21.323833 -72.162176 142.68088 -34.388327 27.514439 
	-34.388327 27.514439 -72.162176 142.68088 -38.088746 21.323921 -1.6720615 -54.875753 
	-72.162176 142.68088 -34.388327 27.514439 -1.6720615 -54.875753 -38.088746 21.323921 
1.5e+010 -37.10638 11.988488 -1.6801016 -67.297326 -33.398431 18.140927 -70.947991 120.22673 
	-1.6801016 -67.297326 -37.10638 11.988488 -70.947991 120.22673 -33.398431 18.140927 
	-33.398431 18.140927 -70.947991 120.22673 -37.106306 11.988464 -1.680101 -67.297433 
	-70.947991 120.22673 -33.398431 18.140927 -1.680101 -67.297433 -37.106306 11.988464 
1.51e+010 -36.582272 2.1815603 -1.6879082 -79.717471 -32.867052 8.2949104 -70.242693 97.310632 
	-1.6879082 -79.717471 -36.582272 2.1815603 -70.242693 97.310632 -32.867052 8.2949104 
	-32.867052 8.2949104 -70.242693 97.310632 -36.582201 2.1815328 -1.6879074 -79.717578 
	-70.242693 97.310632 -32.867052 8.2949104 -1.6879074 -79.717578 -36.582201 2.1815328 
1.52e+010 -36.46568 -7.7944613 -1.6954221 -92.137089 -32.743449 -1.7206127 -69.969034 74.203991 
	-1.6954221 -92.137089 -36.46568 -7.7944613 -69.969034 74.203991 -32.743449 -1.7206127 
	-32.743449 -1.7206127 -69.969034 74.203991 -36.465593 -7.7944147 -1.6954214 -92.137118 
	-69.969034 74.203991 -32.743449 -1.7206127 -1.6954214 -92.137118 -36.465593 -7.7944147 
1.53e+010 -36.744822 -17.711867 -1.7026356 -104.55679 -33.015896 -11.67733 -70.098455 51.06785 
	-1.7026356 -104.55679 -36.744822 -17.711867 -70.098455 51.06785 -33.015896 -11.67733 
	-33.015896 -11.67733 -70.098455 51.06785 -36.744737 -17.711821 -1.7026348 -104.55682 
	-70.098455 51.06785 -33.015896 -11.67733 -1.7026348 -104.55682 -36.744737 -17.711821 
1.54e+010 -37.442847 -27.324403 -1.7095936 -116.97754 -33.707541 -21.32822 -70.639966 28.063028 
	-1.7095936 -116.97754 -37.442847 -27.324403 -70.639966 28.063028 -33.707541 -21.32822 
	-33.707541 -21.32822 -70.639966 28.063028 -37.442774 -27.324323 -1.7095928 -116.9775 
	-70.639966 28.063028 -33.707541 -21.32822 -1.7095928 -116.9775 -37.442774 -27.324323 
1.55e+010 -38.625606 -36.257218 -1.7163859 -129.39993 -34.884148 -30.297794 -71.646037 5.4212811 
	-1.7163859 -129.39993 -38.625606 -36.257218 -71.646037 5.4212811 -34.884148 -30.297794 
	-34.884148 -30.297794 -71.646037 5.4212811 -38.625532 -36.257143 -1.7163852 -129.3999 
	-71.646037 5.4212811 -34.884148 -30.297794 -1.7163852 -129.3999 -38.625532 -36.257143 
1.56e+010 -40.425721 -43.765605 -1.7231303 -141.82395 -36.678271 -37.840813 -73.230346 -16.46442 
	-1.7231303 -141.82395 -40.425721 -43.765605 -73.230346 -16.46442 -36.678271 -37.840813 
	-36.678271 -37.840813 -73.230346 -16.46442 -40.425641 -43.765558 -1.7231296 -141.82398 
	-73.230346 -16.46442 -36.678271 -37.840813 -1.7231296 -141.82398 -40.425641 -43.765558 
1.57e+010 -43.093568 -47.972827 -1.7299508 -154.2498 -39.340181 -42.079962 -75.631256 -36.638916 
	-1.7299508 -154.2498 -43.093568 -47.972827 -75.631256 -36.638916 -39.340181 -42.079962 
	-39.340181 -42.079962 -75.631256 -36.638916 -43.09349 -47.972776 -1.72995 -154.24977 
	-75.631256 -36.638916 -39.340181 -42.079962 -1.72995 -154.24977 -43.09349 -47.972776 
1.58e+010 -46.990261 -42.739648 -1.7369549 -166.67706 -43.230739 -36.874812 -79.376633 -52.004753 
	-1.7369549 -166.67706 -46.990261 -42.739648 -79.376633 -52.004753 -43.230739 -36.874812 
	-43.230739 -36.874812 -79.376633 -52.004753 -46.990189 -42.739559 -1.7369542 -166.67709 
	-79.376633 -52.004753 -43.230739 -36.874812 -1.7369542 -166.67709 -46.990189 -42.739559 
1.59e+010 -50.580333 -9.4541025 -1.7442137 -179.10486 -46.813274 -3.6162531 -85.303391 -46.913062 
	-1.7442137 -179.10486 -50.580333 -9.4541025 -85.303391 -46.913062 -46.813274 -3.6162531 
	-46.813274 -3.6162531 -85.303391 -46.913062 -50.580254 -9.4539221 -1.7442129 -179.10489 
	-85.303391 -46.913062 -46.813274 -3.6162531 -1.7442129 -179.10489 -50.580254 -9.4539221 
1.6e+010 -47.639155 28.393897 -1.7517487 168.46754 -43.865184 34.192049 -85.203608 4.3608671 
	-1.7517487 168.46754 -47.639155 28.393897 -85.203608 4.3608671 -43.865184 34.192049 
	-43.865184 34.192049 -85.203608 4.3608671 -47.639063 28.39402 -1.751748 168.46751 
	-85.203608 4.3608671 -43.865184 34.192049 -1.751748 168.46751 -47.639063 28.39402 
1.61e+010 -43.598519 36.069518 -1.7595283 156.04079 -39.818478 41.834558 -79.359303 8.6543461 
	-1.7595283 156.04079 -43.598519 36.069518 -79.359303 8.6543461 -39.818478 41.834558 
	-39.818478 41.834558 -79.359303 8.6543461 -43.598429 36.069592 -1.7595275 156.04077 
	-79.359303 8.6543461 -39.818478 41.834558 -1.7595275 156.04077 -43.598429 36.069592 
1.62e+010 -40.808305 32.652984 -1.7674735 143.61566 -37.021818 38.386549 -75.69385 -6.8419169 
	-1.7674735 143.61566 -40.808305 32.652984 -75.69385 -6.8419169 -37.021818 38.386549 
	-37.021818 38.386549 -75.69385 -6.8419169 -40.808222 32.652991 -1.7674727 143.61556 
	-75.69385 -6.8419169 -37.021818 38.386549 -1.7674727 143.61556 -40.808222 32.652991 
1.63e+010 -38.932469 25.493499 -1.7754736 131.19223 -35.139395 31.194866 -73.357334 -27.028813 
	-1.7754736 131.19223 -38.932469 25.493499 -73.357334 -27.028813 -35.139395 31.194866 
	-35.139395 31.194866 -73.357334 -27.028813 -38.932405 25.493577 -1.7754728 131.19226 
	-73.357334 -27.028813 -35.139395 31.194866 -1.7754728 131.19226 -38.932405 25.493577 
1.64e+010 -37.699482 16.76732 -1.7834057 118.7709 -33.899797 22.435177 -71.8313 -48.892066 
	-1.7834057 118.7709 -37.699482 16.76732 -71.8313 -48.892066 -33.899797 22.435177 
	-33.899797 22.435177 -71.8313 -48.892066 -37.699431 16.767328 -1.7834049 118.77085 
	-71.8313 -48.892066 -33.899797 22.435177 -1.7834049 118.77085 -37.699431 16.767328 
1.65e+010 -36.96396 7.3109773 -1.7911584 106.3512 -33.157782 12.94417 -70.88022 -71.485061 
	-1.7911584 106.3512 -36.96396 7.3109773 -70.88022 -71.485061 -33.157782 12.94417 
	-33.157782 12.94417 -70.88022 -71.485061 -36.963893 7.3109447 -1.7911577 106.3511 
	-70.88022 -71.485061 -33.157782 12.94417 -1.7911577 106.3511 -36.963893 7.3109447 
1.66e+010 -36.652425 -2.464455 -1.7986519 93.93221 -32.84001 3.1333735 -70.391003 -94.423459 
	-1.7986519 93.93221 -36.652425 -2.464455 -70.391003 -94.423459 -32.84001 3.1333735 
	-32.84001 3.1333735 -70.391003 -94.423459 -36.65236 -2.4643772 -1.7986512 93.932243 
	-70.391003 -94.423459 -32.84001 3.1333735 -1.7986512 93.932243 -36.65236 -2.4643772 
1.67e+010 -36.736029 -12.293928 -1.8058523 81.513674 -32.917633 -6.7316644 -70.31376 -117.45855 
	-1.8058523 81.513674 -36.736029 -12.293928 -70.31376 -117.45855 -32.917633 -6.7316644 
	-32.917633 -6.7316644 -70.31376 -117.45855 -36.735983 -12.293926 -1.8058516 81.513629 
	-70.31376 -117.45855 -32.917633 -6.7316644 -1.8058516 81.513629 -36.735983 -12.293926 
1.68e+010 -37.220454 -21.938727 -1.8127778 69.094478 -33.396383 -16.411435 -70.638083 -140.45286 
	-1.8127778 69.094478 -37.220454 -21.938727 -70.638083 -140.45286 -33.396383 -16.411435 
	-33.396383 -16.411435 -70.638083 -140.45286 -37.220409 -21.938725 -1.8127771 69.094433 
	-70.638083 -140.45286 -33.396383 -16.411435 -1.8127771 69.094433 -37.220409 -21.938725 
1.69e+010 -38.147788 -31.089301 -1.8194954 56.674077 -34.318286 -25.595702 -71.393056 -163.19849 
	-1.8194954 56.674077 -38.147788 -31.089301 -71.393056 -163.19849 -34.318286 -25.595702 
	-34.318286 -25.595702 -71.393056 -163.19849 -38.147745 -31.089298 -1.8194945 56.674032 
	-71.393056 -163.19849 -34.318286 -25.595702 -1.8194945 56.674032 -38.147745 -31.089298 
1.7e+010 -39.61043 -39.205171 -1.8261077 44.25205 -35.775679 -33.743441 -72.65525 174.5999 
	-1.8261077 44.25205 -39.61043 -39.205171 -72.65525 174.5999 -35.775679 -33.743441 
	-35.775679 -33.743441 -72.65525 174.5999 -39.610379 -39.205219 -1.8261069 44.251882 
	-72.65525 174.5999 -35.775679 -33.743441 -1.8261069 44.251882 -39.610379 -39.205219 
1.71e+010 -41.783821 -45.087118 -1.8327352 31.827975 -37.943915 -39.654839 -74.584813 153.56238 
	-1.8327352 31.827975 -41.783821 -45.087118 -74.584813 153.56238 -37.943915 -39.654839 
	-37.943915 -39.654839 -74.584813 153.56238 -41.783785 -45.087102 -1.8327345 31.82793 
	-74.584813 153.56238 -37.943915 -39.654839 -1.8327345 31.82793 -41.783785 -45.087102 
1.72e+010 -44.964256 -45.361774 -1.839493 19.40242 -41.119122 -39.955854 -77.519649 135.3763 
	-1.839493 19.40242 -44.964256 -45.361774 -77.519649 135.3763 -41.119122 -39.955854 
	-41.119122 -39.955854 -77.519649 135.3763 -44.964225 -45.36173 -1.8394922 19.402375 
	-77.519649 135.3763 -41.119122 -39.955854 -1.8394922 19.402375 -44.964225 -45.36173 
1.73e+010 -49.079105 -28.707119 -1.8464696 6.9760014 -45.228054 -23.32355 -82.164034 126.56158 
	-1.8464696 6.9760014 -49.079105 -28.707119 -82.164034 126.56158 -45.228054 -23.32355 
	-45.228054 -23.32355 -82.164034 126.56158 -49.079075 -28.706974 -1.8464689 6.9759561 
	-82.164034 126.56158 -45.228054 -23.32355 -1.8464689 6.9759561 -49.079075 -28.706974 
1.74e+010 -49.496374 13.611387 -1.8537115 -5.4506242 -45.638265 18.963577 -87.113072 157.77846 
	-1.8537115 -5.4506242 -49.496374 13.611387 -87.113072 157.77846 -45.638265 18.963577 
	-45.638265 18.963577 -87.113072 157.77846 -49.496259 13.611954 -1.8537107 -5.4507926 
	-87.113072 157.77846 -45.638265 18.963577 -1.8537107 -5.4507926 -49.496259 13.611954 
1.75e+010 -45.445473 33.612599 -1.8612136 -17.876788 -41.582005 38.931444 -82.253436 -170.59291 
	-1.8612136 -17.876788 -45.445473 33.612599 -82.253436 -170.59291 -41.582005 38.931444 
	-41.582005 38.931444 -82.253436 -170.59291 -45.445348 33.612761 -1.8612127 -17.876956 
	-82.253436 -170.59291 -41.582005 38.931444 -1.8612127 -17.876956 -45.445348 33.612761 
1.76e+010 -42.151702 34.48543 -1.868921 -30.301786 -38.282756 39.775819 -77.63565 -179.24708 
	-1.868921 -30.301786 -42.151702 34.48543 -77.63565 -179.24708 -38.282756 39.775819 
	-38.282756 39.775819 -77.63565 -179.24708 -42.151647 34.48546 -1.8689203 -30.301831 
	-77.63565 -179.24708 -38.282756 39.775819 -1.8689203 -30.301831 -42.151647 34.48546 
1.77e+010 -39.902625 29.049192 -1.8767398 -42.724964 -36.027841 34.311187 -74.735958 162.62958 
	-1.8767398 -42.724964 -39.902625 29.049192 -74.735958 162.62958 -36.027841 34.311187 
	-36.027841 34.311187 -74.735958 162.62958 -39.902522 29.04921 -1.8767391 -42.725055 
	-74.735958 162.62958 -36.027841 34.311187 -1.8767391 -42.725055 -39.902522 29.04921 
1.78e+010 -38.391727 21.168095 -1.8845535 -55.14636 -34.511086 26.400593 -72.843331 141.65256 
	-1.8845535 -55.14636 -38.391727 21.168095 -72.843331 141.65256 -34.511086 26.400593 
	-34.511086 26.400593 -72.843331 141.65256 -38.391668 21.168167 -1.8845528 -55.146327 
	-72.843331 141.65256 -34.511086 26.400593 -1.8845528 -55.146327 -38.391668 21.168167 
1.79e+010 -37.430775 12.179826 -1.8922458 -67.565963 -33.544313 17.381531 -71.620199 119.49981 
	-1.8922458 -67.565963 -37.430775 12.179826 -71.620199 119.49981 -33.544313 17.381531 
	-33.544313 17.381531 -71.620199 119.49981 -37.430714 12.179897 -1.892245 -67.565931 
	-71.620199 119.49981 -33.544313 17.381531 -1.892245 -67.565931 -37.430714 12.179897 
1.8e+010 -36.919559 2.6743142 -1.8997214 -79.984241 -33.027434 7.8441936 -70.904296 96.819267 
	-1.8997214 -79.984241 -36.919559 2.6743142 -70.904296 96.819267 -33.027434 7.8441936 
	-33.027434 7.8441936 -70.904296 96.819267 -36.919468 2.6743073 -1.8997205 -79.984332 
	-70.904296 96.819267 -33.027434 7.8441936 -1.8997205 -79.984332 -36.919468 2.6743073 
1.81e+010 -36.81065 -7.0166103 -1.9069236 -92.402203 -32.913133 -1.8789714 -70.618721 73.916047 
	-1.9069236 -92.402203 -36.81065 -7.0166103 -70.618721 73.916047 -32.913133 -1.8789714 
	-32.913133 -1.8789714 -70.618721 73.916047 -36.810606 -7.0166118 -1.9069228 -92.402248 
	-70.618721 73.916047 -32.913133 -1.8789714 -1.9069228 -92.402248 -36.810606 -7.0166118 
1.82e+010 -37.093552 -16.640388 -1.9138443 -104.82018 -33.190883 -11.53479 -70.734371 50.973983 
	-1.9138443 -104.82018 -37.093552 -16.640388 -70.734371 50.973983 -33.190883 -11.53479 
	-33.190883 -11.53479 -70.734371 50.973983 -37.093468 -16.640399 -1.9138436 -104.82027 
	-70.734371 50.973983 -33.190883 -11.53479 -1.9138436 -104.82027 -37.093468 -16.640399 
1.83e+010 -37.790971 -25.922898 -1.920526 -117.23907 -33.883442 -20.848424 -71.259469 28.176035 
	-1.920526 -117.23907 -37.790971 -25.922898 -71.259469 28.176035 -33.883442 -20.848424 
	-33.883442 -20.848424 -71.259469 28.176035 -37.79089 -25.922907 -1.9205252 -117.23916 
	-71.259469 28.176035 -33.883442 -20.848424 -1.9205252 -117.23916 -37.79089 -25.922907 
1.84e+010 -38.966047 -34.448281 -1.9270528 -129.65936 -35.053853 -29.403366 -72.244176 5.7734755 
	-1.9270528 -129.65936 -38.966047 -34.448281 -72.244176 5.7734755 -35.053853 -29.403366 
	-35.053853 -29.403366 -72.244176 5.7734755 -38.965971 -34.448283 -1.9270519 -129.65945 
	-72.244176 5.7734755 -35.053853 -29.403366 -1.9270519 -129.65945 -38.965971 -34.448283 
1.85e+010 -40.742615 -41.399106 -1.9335357 -142.08144 -36.825892 -36.381681 -73.795214 -15.817837 
	-1.9335357 -142.08144 -40.742615 -41.399106 -73.795214 -15.817837 -36.825892 -36.381681 
	-36.825892 -36.381681 -73.795214 -15.817837 -40.742545 -41.399095 -1.9335348 -142.08153 
	-73.795214 -15.817837 -36.825892 -36.381681 -1.9335348 -142.08153 -40.742545 -41.399095 
1.86e+010 -43.339758 -44.762764 -1.9400917 -154.50524 -39.418502 -39.770182 -76.137007 -35.573093 
	-1.9400917 -154.50524 -43.339758 -44.762764 -76.137007 -35.573093 -39.418502 -39.770182 
	-39.418502 -39.770182 -76.137007 -35.573093 -43.33969 -44.762729 -1.940091 -154.50521 
	-76.137007 -35.573093 -39.418502 -39.770182 -1.940091 -154.50521 -43.33969 -44.762729 
1.87e+010 -46.985285 -38.386107 -1.9468226 -166.93024 -43.059195 -33.414771 -79.735784 -50.32835 
	-1.9468226 -166.93024 -46.985285 -38.386107 -79.735784 -50.32835 -43.059195 -33.414771 
	-43.059195 -33.414771 -79.735784 -50.32835 -46.985217 -38.386118 -1.9468217 -166.93021 
	-79.735784 -50.32835 -43.059195 -33.414771 -1.9468217 -166.93021 -46.985217 -38.386118 
1.88e+010 -49.969815 -7.2166767 -1.9537953 -179.3561 -46.037547 -2.266965 -85.164962 -45.605095 
	-1.9537953 -179.3561 -49.969815 -7.2166767 -85.164962 -45.605095 -46.037547 -2.266965 
	-46.037547 -2.266965 -85.164962 -45.605095 -49.969736 -7.2163016 -1.9537945 -179.35619 
	-85.164962 -45.605095 -46.037547 -2.266965 -1.9537945 -179.35619 -49.969736 -7.2163016 
1.89e+010 -47.397795 26.519593 -1.9610306 168.21839 -43.460051 31.436395 -85.381921 -0.34122306 
	-1.9610306 168.21839 -47.397795 26.519593 -85.381921 -0.34122306 -43.460051 31.436395 
	-43.460051 31.436395 -85.381921 -0.34122306 -47.397682 26.519799 -1.9610297 168.2183 
	-85.381921 -0.34122306 -43.460051 31.436395 -1.9610297 168.2183 -47.397682 26.519799 
1.9e+010 -43.687768 34.545646 -1.9684988 155.79381 -39.74529 39.435348 -79.959168 5.7554647 
	-1.9684988 155.79381 -43.687768 34.545646 -79.959168 5.7554647 -39.74529 39.435348 
	-39.74529 39.435348 -79.959168 5.7554647 -43.68766 34.545719 -1.9684979 155.79372 
	-79.959168 5.7554647 -39.74529 39.435348 -1.9684979 155.79372 -43.68766 34.545719 
1.91e+010 -41.018091 31.771724 -1.9761259 143.37063 -37.070552 36.636023 -76.343999 -8.6638425 
	-1.9761259 143.37063 -41.018091 31.771724 -76.343999 -8.6638425 -37.070552 36.636023 
	-37.070552 36.636023 -76.343999 -8.6638425 -41.017991 31.771749 -1.976125 143.37054 
	-76.343999 -8.6638425 -37.070552 36.636023 -1.976125 143.37054 -41.017991 31.771749 
1.92e+010 -39.195314 25.096232 -1.9838068 130.94918 -35.242544 29.934374 -74.009706 -28.290252 
	-1.9838068 130.94918 -39.195314 25.096232 -74.009706 -28.290252 -35.242544 29.934374 
	-35.242544 29.934374 -74.009706 -28.290252 -39.195219 25.096234 -1.9838061 130.94909 
	-74.009706 -28.290252 -35.242544 29.934374 -1.9838061 130.94909 -39.195219 25.096234 
1.93e+010 -37.989977 16.743074 -1.9914263 118.5296 -34.031945 21.55382 -72.476146 -49.790943 
	-1.9914263 118.5296 -37.989977 16.743074 -72.476146 -49.790943 -34.031945 21.55382 
	-34.031945 21.55382 -72.476146 -49.790943 -37.989887 16.743067 -1.9914255 118.52951 
	-72.476146 -49.790943 -34.031945 21.55382 -1.9914255 118.52951 -37.989887 16.743067 
1.94e+010 -37.270373 7.5984146 -1.9988785 106.11145 -33.307204 12.380643 -71.515164 -72.116539 
	-1.9988785 106.11145 -37.270373 7.5984146 -71.515164 -72.116539 -33.307204 12.380643 
	-33.307204 12.380643 -71.515164 -72.116539 -37.270317 7.5984804 -1.9988776 106.11148 
	-71.515164 -72.116539 -33.307204 12.380643 -1.9988776 106.11148 -37.270317 7.5984804 
1.95e+010 -36.968332 -1.8933684 -2.0060878 93.694272 -33.000211 2.859477 -71.01497 -94.83382 
	-2.0060878 93.694272 -36.968332 -1.8933684 -71.01497 -94.83382 -33.000211 2.859477 
	-33.000211 2.859477 -71.01497 -94.83382 -36.968263 -1.8934531 -2.006087 93.694103 
	-71.01497 -94.83382 -33.000211 2.859477 -2.006087 93.694103 -36.968263 -1.8934531 
1.96e+010 -37.056942 -11.442803 -2.0130219 81.277227 -33.08414 -6.7193565 -70.924927 -117.67927 
	-2.0130219 81.277227 -37.056942 -11.442803 -70.924927 -117.67927 -33.08414 -6.7193565 
	-33.08414 -6.7193565 -70.924927 -117.67927 -37.056901 -11.44281 -2.0130212 81.277182 
	-70.924927 -117.67927 -33.08414 -6.7193565 -2.0130212 81.277182 -37.056901 -11.44281 
1.97e+010 -37.542278 -20.786884 -2.019698 68.859407 -33.565039 -16.092327 -71.234353 -140.47826 
	-2.019698 68.859407 -37.542278 -20.786884 -71.234353 -140.47826 -33.565039 -16.092327 
	-33.565039 -16.092327 -71.234353 -140.47826 -37.542201 -20.786899 -2.0196972 68.859316 
	-71.234353 -140.47826 -33.565039 -16.092327 -2.0196972 68.859316 -37.542201 -20.786899 
1.98e+010 -38.464846 -29.584555 -2.0261786 56.440613 -34.483415 -24.917647 -71.97008 -163.01336 
	-2.0261786 56.440613 -38.464846 -29.584555 -71.97008 -163.01336 -34.483415 -24.917647 
	-34.483415 -24.917647 -71.97008 -163.01336 -38.464773 -29.584568 -2.0261778 56.440522 
	-71.97008 -163.01336 -34.483415 -24.917647 -2.0261778 56.440522 -38.464773 -29.584568 
1.99e+010 -39.911854 -37.24522 -2.0325609 44.02029 -35.92637 -32.604144 -73.206535 175.04524 
	-2.0325609 44.02029 -39.911854 -37.24522 -73.206535 175.04524 -35.92637 -32.604144 
	-35.92637 -32.604144 -73.206535 175.04524 -39.911786 -37.245224 -2.0325602 44.020199 
	-73.206535 175.04524 -35.92637 -32.604144 -2.0325602 44.020199 -39.911786 -37.245224 
2e+010 -42.041936 -42.479433 -2.0389586 31.598221 -38.05247 -37.861891 -75.092643 154.34234 
	-2.0389586 31.598221 -42.041936 -42.479433 -75.092643 154.34234 -38.05247 -37.861891 
	-38.05247 -37.861891 -75.092643 154.34234 -42.041906 -42.479442 -2.0389578 31.598052 
	-75.092643 154.34234 -38.05247 -37.861891 -2.0389578 31.598052 -42.041906 -42.479442 
2.01e+010 -45.088451 -41.803738 -2.0454804 19.174634 -41.094881 -37.206655 -77.935632 136.62628 
	-2.0454804 19.174634 -45.088451 -41.803738 -77.935632 136.62628 -41.094881 -37.206655 
	-41.094881 -37.206655 -77.935632 136.62628 -45.088435 -41.803623 -2.0454797 19.174466 
	-77.935632 136.62628 -41.094881 -37.206655 -2.0454797 19.174466 -45.088435 -41.803623 
2.02e+010 -48.765638 -24.866782 -2.0522106 6.7501617 -44.767165 -20.286964 -82.325999 128.31754 
	-2.0522106 6.7501617 -48.765638 -24.866782 -82.325999 128.31754 -44.767165 -20.286964 
	-44.767165 -20.286964 -82.325999 128.31754 -48.765618 -24.866332 -2.0522098 6.7499932 
	-82.325999 128.31754 -44.767165 -20.286964 -2.0522098 6.7499932 -48.765618 -24.866332 
2.03e+010 -49.008923 12.894746 -2.059193 -5.6747043 -45.004663 17.447907 -86.821041 155.47405 
	-2.059193 -5.6747043 -49.008923 12.894746 -86.821041 155.47405 -45.004663 17.447907 
	-45.004663 17.447907 -86.821041 155.47405 -49.008826 12.895048 -2.0591921 -5.674795 
	-86.821041 155.47405 -45.004663 17.447907 -2.0591921 -5.674795 -49.008826 12.895048 
2.04e+010 -45.402956 31.837327 -2.0664233 -18.099136 -41.394423 36.362635 -82.708103 -174.36094 
	-2.0664233 -18.099136 -45.402956 31.837327 -82.708103 -174.36094 -41.394423 36.362635 
	-41.394423 36.362635 -82.708103 -174.36094 -45.402851 31.837442 -2.0664225 -18.099227 
	-82.708103 -174.36094 -41.394423 36.362635 -2.0664225 -18.099227 -45.402851 31.837442 
2.05e+010 -42.2974 33.308809 -2.0738495 -30.522268 -38.284478 37.810712 -78.242691 178.47832 
	-2.0738495 -30.522268 -42.2974 33.308809 -78.242691 178.47832 -38.284478 37.810712 
	-38.284478 37.810712 -78.242691 178.47832 -42.297301 33.308822 -2.0738486 -30.522437 
	-78.242691 178.47832 -38.284478 37.810712 -2.0738486 -30.522437 -42.297301 33.308822 
2.06e+010 -40.124242 28.406954 -2.0813828 -42.943716 -36.106651 32.885532 -75.360823 161.11151 
	-2.0813828 -42.943716 -40.124242 28.406954 -75.360823 161.11151 -36.106651 32.885532 
	-36.106651 32.885532 -75.360823 161.11151 -40.124154 28.406912 -2.081382 -42.943885 
	-75.360823 161.11151 -36.106651 32.885532 -2.081382 -42.943885 -40.124154 28.406912 
2.07e+010 -38.650163 20.932754 -2.0889133 -55.363513 -34.627803 25.386955 -73.46435 140.5815 
	-2.0889133 -55.363513 -38.650163 20.932754 -73.46435 140.5815 -34.627803 25.386955 
	-34.627803 25.386955 -73.46435 140.5815 -38.650076 20.932747 -2.0889125 -55.363604 
	-73.46435 140.5815 -34.627803 25.386955 -2.0889125 -55.363604 -38.650076 20.932747 
2.08e+010 -37.709427 12.27302 -2.0963308 -67.781651 -33.682362 16.70156 -72.23287 118.72649 
	-2.0963308 -67.781651 -37.709427 12.27302 -72.23287 118.72649 -33.682362 16.70156 
	-33.682362 16.70156 -72.23287 118.72649 -37.709344 12.273004 -2.09633 -67.781742 
	-72.23287 118.72649 -33.682362 16.70156 -2.09633 -67.781742 -37.709344 12.273004 
2.09e+010 -37.209989 3.0550495 -2.103545 -80.198526 -33.178362 7.4569645 -71.506722 96.283305 
	-2.103545 -80.198526 -37.209989 3.0550495 -71.506722 96.283305 -33.178362 7.4569645 
	-33.178362 7.4569645 -71.506722 96.283305 -37.209909 3.0550294 -2.1035441 -80.198617 
	-71.506722 96.283305 -33.178362 7.4569645 -2.1035441 -80.198617 -37.209909 3.0550294 
2.1e+010 -37.107639 -6.3626956 -2.110502 -92.614909 -33.071685 -1.9878618 -71.209398 73.578669 
	-2.110502 -92.614909 -37.107639 -6.3626956 -71.209398 73.578669 -33.071685 -1.9878618 
	-33.071685 -1.9878618 -71.209398 73.578669 -37.107562 -6.3627168 -2.1105009 -92.615 
	-71.209398 73.578669 -33.071685 -1.9878618 -2.1105009 -92.615 -37.107562 -6.3627168 
2.11e+010 -37.392825 -15.70529 -2.1171937 -105.03154 -33.352811 -11.357332 -71.310919 50.820079 
	-2.1171937 -105.03154 -37.392825 -15.70529 -71.310919 50.820079 -33.352811 -11.357332 
	-33.352811 -11.357332 -71.310919 50.820079 -37.392751 -15.705312 -2.1171928 -105.03163 
	-71.310919 50.820079 -33.352811 -11.357332 -2.1171928 -105.03163 -37.392751 -15.705312 
2.12e+010 -38.087722 -24.673002 -2.1236604 -117.44897 -34.043873 -20.351011 -71.819497 28.224923 
	-2.1236604 -117.44897 -38.087722 -24.673002 -71.819497 28.224923 -34.043873 -20.351011 
	-34.043873 -20.351011 -71.819497 28.224923 -38.087651 -24.673023 -2.1236595 -117.44906 
	-71.819497 28.224923 -34.043873 -20.351011 -2.1236595 -117.44906 -38.087651 -24.673023 
2.13e+010 -39.252333 -32.813567 -2.1299815 -129.86801 -35.204811 -28.516008 -72.78319 6.056408 
	-2.1299815 -129.86801 -39.252333 -32.813567 -72.78319 6.056408 -35.204811 -28.516008 
	-35.204811 -28.516008 -72.78319 6.056408 -39.252267 -32.81358 -2.1299805 -129.8681 
	-72.78319 6.056408 -35.204811 -28.516008 -2.1299805 -129.8681 -39.252267 -32.81358 
2.14e+010 -41.000832 -39.247749 -2.1362617 -142.28858 -36.949771 -34.972613 -74.299873 -15.261007 
	-2.1362617 -142.28858 -41.000832 -39.247749 -74.299873 -15.261007 -36.949771 -34.972613 
	-36.949771 -34.972613 -74.299873 -15.261007 -41.000771 -39.247746 -2.1362609 -142.28868 
	-74.299873 -15.261007 -36.949771 -34.972613 -2.1362609 -142.28868 -41.000771 -39.247746 
2.15e+010 -43.520382 -41.867787 -2.1426122 -154.71066 -39.465714 -37.612473 -76.581962 -34.633609 
	-2.1426122 -154.71066 -43.520382 -41.867787 -76.581962 -34.633609 -39.465714 -37.612473 
	-39.465714 -37.612473 -76.581962 -34.633609 -43.520322 -41.867765 -2.1426113 -154.71063 
	-76.581962 -34.633609 -39.465714 -37.612473 -2.1426113 -154.71063 -43.520322 -41.867765 
2.16e+010 -46.920946 -34.663297 -2.1491291 -167.13388 -42.86231 -30.424438 -80.040132 -48.874329 
	-2.1491291 -167.13388 -46.920946 -34.663297 -80.040132 -48.874329 -42.86231 -30.424438 
	-42.86231 -30.424438 -80.040132 -48.874329 -46.920899 -34.663144 -2.1491283 -167.13397 
	-80.040132 -48.874329 -42.86231 -30.424438 -2.1491283 -167.13397 -46.920899 -34.663144 
2.17e+010 -49.439141 -5.5984395 -2.1558761 -179.55776 -45.375291 -1.3777399 -85.035161 -44.712871 
	-2.1558761 -179.55776 -49.439141 -5.5984395 -85.035161 -44.712871 -45.375291 -1.3777399 
	-45.375291 -1.3777399 -85.035161 -44.712871 -49.439071 -5.5981138 -2.1558752 -179.55785 
	-85.035161 -44.712871 -45.375291 -1.3777399 -2.1558752 -179.55785 -49.439071 -5.5981138 
2.18e+010 -47.170702 24.847261 -2.1628732 168.01842 -43.102365 29.040046 -85.502916 -4.6031564 
	-2.1628732 168.01842 -47.170702 24.847261 -85.502916 -4.6031564 -43.102365 29.040046 
	-43.102365 29.040046 -85.502916 -4.6031564 -47.170603 24.847446 -2.1628724 168.01833 
	-85.502916 -4.6031564 -43.102365 29.040046 -2.1628724 168.01833 -47.170603 24.847446 
2.19e+010 -43.750006 33.087327 -2.1700923 155.59549 -39.67786 37.257273 -80.497134 2.864778 
	-2.1700923 155.59549 -43.750006 33.087327 -80.497134 2.864778 -39.67786 37.257273 
	-39.67786 37.257273 -80.497134 2.864778 -43.749909 33.08739 -2.1700914 155.5954 
	-80.497134 2.864778 -39.67786 37.257273 -2.1700914 155.5954 -43.749909 33.08739 
2.2e+010 -41.193497 30.876877 -2.1774636 143.1736 -37.117235 35.025706 -76.938908 -10.500566 
	-2.1774636 143.1736 -41.193497 30.876877 -76.938908 -10.500566 -37.117235 35.025706 
	-37.117235 35.025706 -76.938908 -10.500566 -41.193407 30.876892 -2.1774628 143.17351 
	-76.938908 -10.500566 -37.117235 35.025706 -2.1774628 143.17351 -41.193407 30.876892 
2.21e+010 -39.421431 24.648469 -2.1848877 130.75363 -35.340883 28.775488 -74.608902 -29.561718 
	-2.1848877 130.75363 -39.421431 24.648469 -74.608902 -29.561718 -35.340883 28.775488 
	-35.340883 28.775488 -74.608902 -29.561718 -39.421347 24.648465 -2.1848866 130.75354 
	-74.608902 -29.561718 -35.340883 28.775488 -2.1848866 130.75354 -39.421347 24.648465 
2.22e+010 -38.242437 16.647366 -2.1922547 118.33544 -34.157562 20.751362 -73.069644 -50.715283 
	-2.1922547 118.33544 -38.242437 16.647366 -73.069644 -50.715283 -34.157562 20.751362 
	-34.157562 20.751362 -73.069644 -50.715283 -38.242356 16.64735 -2.1922539 118.33535 
	-73.069644 -50.715283 -34.157562 20.751362 -2.1922539 118.33535 -38.242356 16.64735 
2.23e+010 -37.537736 7.8000245 -2.1994648 105.9186 -33.448642 11.879861 -72.099388 -72.779878 
	-2.1994648 105.9186 -37.537736 7.8000245 -72.099388 -72.779878 -33.448642 11.879861 
	-33.448642 11.879861 -72.099388 -72.779878 -37.537659 7.8000016 -2.1994639 105.91851 
	-72.099388 -72.779878 -33.448642 11.879861 -2.1994639 105.91851 -37.537659 7.8000016 
2.24e+010 -37.244129 -1.4200342 -2.2064461 93.502704 -33.150992 2.6349276 -71.588562 -95.276042 
	-2.2064461 93.502704 -37.244129 -1.4200342 -71.588562 -95.276042 -33.150992 2.6349276 
	-33.150992 2.6349276 -71.588562 -95.276042 -37.244055 -1.4200597 -2.2064453 93.502613 
	-71.588562 -95.276042 -33.150992 2.6349276 -2.2064453 93.502613 -37.244055 -1.4200597 
2.25e+010 -37.336561 -10.7007 -2.2131676 81.086806 -33.239652 -6.6707562 -71.485266 -117.94798 
	-2.2131676 81.086806 -37.336561 -10.7007 -71.485266 -117.94798 -33.239652 -6.6707562 
	-33.239652 -6.6707562 -71.485266 -117.94798 -37.33649 -10.700728 -2.2131668 81.086715 
	-71.485266 -117.94798 -33.239652 -6.6707562 -2.2131668 81.086715 -37.33649 -10.700728 
2.26e+010 -37.821244 -19.756365 -2.2196455 68.670569 -33.720768 -15.750851 -71.780901 -140.53859 
	-2.2196455 68.670569 -37.821244 -19.756365 -71.780901 -140.53859 -33.720768 -15.750851 
	-33.720768 -15.750851 -71.780901 -140.53859 -37.821176 -19.756389 -2.2196445 68.670478 
	-71.780901 -140.53859 -33.720768 -15.750851 -2.2196445 68.670478 -37.821176 -19.756389 
2.27e+010 -38.736895 -28.21826 -2.2259388 56.253023 -34.633088 -24.235987 -72.497299 -162.87208 
	-2.2259388 56.253023 -38.736895 -28.21826 -72.497299 -162.87208 -34.633088 -24.235987 
	-34.633088 -24.235987 -72.497299 -162.87208 -38.736831 -28.218281 -2.2259379 56.252932 
	-72.497299 -162.87208 -34.633088 -24.235987 -2.2259379 56.252932 -38.736831 -28.218281 
2.28e+010 -40.165004 -35.451879 -2.2321397 43.834034 -36.057985 -31.491071 -73.704573 175.41518 
	-2.2321397 43.834034 -40.165004 -35.451879 -73.704573 175.41518 -36.057985 -31.491071 
	-36.057985 -31.491071 -73.704573 175.41518 -40.164945 -35.451889 -2.2321389 43.833944 
	-73.704573 175.41518 -36.057985 -31.491071 -2.2321389 43.833944 -40.164945 -35.451889 
2.29e+010 -42.246826 -40.097712 -2.2383561 31.413111 -38.136619 -36.156096 -75.547904 155.03109 
	-2.2383561 31.413111 -42.246826 -40.097712 -75.547904 155.03109 -38.136619 -36.156096 
	-38.136619 -36.156096 -75.547904 155.03109 -42.246773 -40.097698 -2.2383552 31.41302 
	-75.547904 155.03109 -38.136619 -36.156096 -2.2383552 31.41302 -42.246773 -40.097698 
2.3e+010 -45.155722 -38.636142 -2.2446909 18.991149 -41.042141 -34.710794 -78.303164 137.74138 
	-2.2446909 18.991149 -45.155722 -38.636142 -78.303164 137.74138 -41.042141 -34.710794 
	-41.042141 -34.710794 -78.303164 137.74138 -45.155675 -38.636061 -2.2446901 18.991058 
	-78.303164 137.74138 -41.042141 -34.710794 -2.2446901 18.991058 -45.155675 -38.636061 
2.31e+010 -48.450885 -21.772955 -2.2512242 6.5682282 -44.333124 -17.861577 -82.452174 129.76161 
	-2.2512242 6.5682282 -48.450885 -21.772955 -82.452174 129.76161 -44.333124 -17.861577 
	-44.333124 -17.861577 -82.452174 129.76161 -48.450836 -21.772714 -2.2512231 6.5681374 
	-82.452174 129.76161 -44.333124 -17.861577 -2.2512231 6.5681374 -48.450836 -21.772714 
2.32e+010 -48.584536 12.222855 -2.2579974 -5.8549946 -44.461931 16.111409 -86.568931 153.35575 
	-2.2579974 -5.8549946 -48.584536 12.222855 -86.568931 153.35575 -44.461931 16.111409 
	-44.461931 16.111409 -86.568931 153.35575 -48.58445 12.223124 -2.2579965 -5.8550854 
	-86.568931 153.35575 -44.461931 16.111409 -2.2579965 -5.8550854 -48.58445 12.223124 
2.33e+010 -45.348648 30.192402 -2.2650069 -18.277685 -41.222517 34.057052 -83.10045 -178.0156 
	-2.2650069 -18.277685 -45.348648 30.192402 -83.10045 -178.0156 -41.222517 34.057052 
	-41.222517 34.057052 -83.10045 -178.0156 -45.348554 30.192511 -2.2650059 -18.277776 
	-83.10045 -178.0156 -41.222517 34.057052 -2.2650059 -18.277776 -45.348554 30.192511 
2.34e+010 -42.416132 32.157077 -2.2722036 -30.699334 -38.286414 36.001946 -78.799701 176.18948 
	-2.2722036 -30.699334 -42.416132 32.157077 -78.799701 176.18948 -38.286414 36.001946 
	-38.286414 36.001946 -78.799701 176.18948 -42.416043 32.157107 -2.2722028 -30.699425 
	-78.799701 176.18948 -38.286414 36.001946 -2.2722028 -30.699425 -42.416043 32.157107 
2.35e+010 -40.315411 27.741075 -2.2795034 -43.119504 -36.181848 31.566318 -75.940087 159.56411 
	-2.2795034 -43.119504 -40.315411 27.741075 -75.940087 159.56411 -36.181848 31.566318 
	-36.181848 31.566318 -75.940087 159.56411 -40.315328 27.741074 -2.2795025 -43.119595 
	-75.940087 159.56411 -36.181848 31.566318 -2.2795025 -43.119595 -40.315328 27.741074 
2.36e+010 -38.87661 20.648684 -2.2868019 -55.538188 -34.739077 24.453271 -74.041674 139.46244 
	-2.2868019 -55.538188 -38.87661 20.648684 -74.041674 139.46244 -34.739077 24.453271 
	-34.739077 24.453271 -74.041674 139.46244 -38.876531 20.648668 -2.2868012 -55.538279 
	-74.041674 139.46244 -34.739077 24.453271 -2.2868012 -55.538279 -38.876531 20.648668 
2.37e+010 -37.955076 12.301773 -2.2939945 -67.955093 -33.813625 16.084492 -72.801648 117.91601 
	-2.2939945 -67.955093 -37.955076 12.301773 -72.801648 117.91601 -33.813625 16.084492 
	-33.813625 16.084492 -72.801648 117.91601 -37.955001 12.301749 -2.2939936 -67.955184 
	-72.801648 117.91601 -33.813625 16.084492 -2.2939936 -67.955184 -37.955001 12.301749 
2.38e+010 -37.466456 3.3594473 -2.3009951 -80.370914 -33.321239 7.119353 -72.065117 95.702725 
	-2.3009951 -80.370914 -37.466456 3.3594473 -72.065117 95.702725 -33.321239 7.119353 
	-33.321239 7.119353 -72.065117 95.702725 -37.466385 3.3594192 -2.3009943 -80.371005 
	-72.065117 95.702725 -33.321239 7.119353 -2.3009943 -80.371005 -37.466385 3.3594192 
2.39e+010 -37.36964 -5.7957775 -2.3077526 -92.786142 -33.220854 -2.0591026 -71.756151 73.205871 
	-2.3077526 -92.786142 -37.36964 -5.7957775 -71.756151 73.205871 -33.220854 -2.0591026 
	-33.220854 -2.0591026 -71.756151 73.205871 -37.369571 -5.7958082 -2.3077518 -92.786233 
	-71.756151 73.205871 -33.220854 -2.0591026 -2.3077518 -92.786233 -37.369571 -5.7958082 
2.4e+010 -37.655913 -14.868185 -2.3142595 -105.2016 -33.503806 -11.154525 -71.844379 50.642435 
	-2.3142595 -105.2016 -37.655913 -14.868185 -71.844379 50.642435 -33.503806 -11.154525 
	-33.503806 -11.154525 -71.844379 50.642435 -37.655848 -14.868214 -2.3142585 -105.20169 
	-71.844379 50.642435 -33.503806 -11.154525 -2.3142585 -105.20169 -37.655848 -14.868214 
2.41e+010 -38.346626 -23.534759 -2.3205532 -117.61782 -34.191407 -19.843261 -72.336417 28.242714 
	-2.3205532 -117.61782 -38.346626 -23.534759 -72.336417 28.242714 -34.191407 -19.843261 
	-34.191407 -19.843261 -72.336417 28.242714 -38.346552 -23.53486 -2.3205522 -117.61803 
	-72.336417 28.242714 -34.191407 -19.843261 -2.3205522 -117.61803 -38.346552 -23.53486 
2.42e+010 -39.498271 -31.310713 -2.3267092 -130.03553 -35.340124 -27.639817 -73.274402 6.2688971 
	-2.3267092 -130.03553 -39.498271 -31.310713 -73.274402 6.2688971 -35.340124 -27.639817 
	-35.340124 -27.639817 -73.274402 6.2688971 -39.498213 -31.310732 -2.3267084 -130.03562 
	-73.274402 6.2688971 -35.340124 -27.639817 -2.3267084 -130.03562 -39.498213 -31.310732 
2.43e+010 -41.215093 -37.26635 -2.3328273 -142.45488 -37.05404 -33.61405 -74.760121 -14.764191 
	-2.3328273 -142.45488 -41.215093 -37.26635 -74.760121 -14.764191 -37.05404 -33.61405 
	-37.05404 -33.61405 -74.760121 -14.764191 -41.214988 -37.266286 -2.3328264 -142.45482 
	-74.760121 -14.764191 -37.05404 -33.61405 -2.3328264 -142.45482 -41.214988 -37.266286 
2.44e+010 -43.652506 -39.234105 -2.3390127 -154.87575 -39.488556 -35.597954 -76.981295 -33.792139 
	-2.3390127 -154.87575 -43.652506 -39.234105 -76.981295 -33.792139 -39.488556 -35.597954 
	-39.488556 -35.597954 -76.981295 -33.792139 -43.65246 -39.234067 -2.3390117 -154.87584 
	-76.981295 -33.792139 -39.488556 -35.597954 -2.3390117 -154.87584 -43.65246 -39.234067 
2.45e+010 -46.81967 -31.454267 -2.3453566 -167.29757 -42.652347 -27.831226 -80.297477 -47.62629 
	-2.3453566 -167.29757 -46.81967 -31.454267 -80.297477 -47.62629 -42.652347 -27.831226 
	-42.652347 -27.831226 -80.297477 -47.62629 -46.819628 -31.454125 -2.3453556 -167.29766 
	-80.297477 -47.62629 -42.652347 -27.831226 -2.3453556 -167.29766 -46.819628 -31.454125 
2.46e+010 -48.972936 -4.3887059 -2.3519197 -179.72002 -44.801122 -0.7812538 -84.919413 -44.10478 
	-2.3519197 -179.72002 -48.972936 -4.3887059 -84.919413 -44.10478 -44.801122 -0.7812538 
	-44.801122 -0.7812538 -84.919413 -44.10478 -48.972872 -4.3884181 -2.3519189 -179.72011 
	-84.919413 -44.10478 -44.801122 -0.7812538 -2.3519189 -179.72011 -48.972872 -4.3884181 
2.47e+010 -46.957701 23.344563 -2.3587215 167.85743 -42.782101 26.927804 -85.585131 -8.5567706 
	-2.3587215 167.85743 -46.957701 23.344563 -85.585131 -8.5567706 -42.782101 26.927804 
	-42.782101 26.927804 -85.585131 -8.5567706 -46.957627 23.344532 -2.3587204 167.8575 
	-85.585131 -8.5567706 -42.782101 26.927804 -2.3587204 167.8575 -46.957627 23.344532 
2.48e+010 -43.79324 31.698451 -2.365735 155.43588 -39.614486 35.262081 -80.984111 0.005929412 
	-2.365735 155.43588 -43.79324 31.698451 -80.984111 0.005929412 -39.614486 35.262081 
	-39.614486 35.262081 -80.984111 0.0059294104 -43.793163 31.698496 -2.3657341 155.43595 
	-80.984111 0.0059294103 -39.614486 35.262081 -2.3657341 155.43595 -43.793163 31.698496 
2.49e+010 -41.343807 29.985334 -2.3728942 143.01559 -37.161627 33.531036 -77.492088 -12.356691 
	-2.3728942 143.01559 -41.343807 29.985334 -77.492088 -12.356691 -37.161627 33.531036 
	-37.161627 33.531036 -77.492088 -12.356691 -41.343726 29.98541 -2.3728931 143.01566 
	-77.492088 -12.356691 -37.161627 33.531036 -2.3728931 143.01566 -41.343726 29.98541 
2.5e+010 -39.620544 24.172509 -2.3801044 130.59686 -35.43476 27.699644 -75.169781 -30.876408 
	-2.3801044 130.59686 -39.620544 24.172509 -75.169781 -30.876408 -35.43476 27.699644 
	-35.43476 27.699644 -75.169781 -30.876408 -39.62046 24.172595 -2.3801036 130.59692 
	-75.169781 -30.876408 -35.43476 27.699644 -2.3801036 130.59692 -39.62046 24.172595 
2.51e+010 -38.466823 16.50545 -2.3872621 118.17982 -34.27738 20.012758 -73.624459 -51.662445 
	-2.3872621 118.17982 -38.466823 16.50545 -73.624459 -51.662445 -34.27738 20.012758 
	-34.27738 20.012758 -73.624459 -51.662445 -38.46672 16.505354 -2.3872612 118.1796 
	-73.624459 -51.662445 -34.27738 20.012758 -2.3872612 118.1796 -38.46672 16.505354 
2.52e+010 -37.776107 7.9427064 -2.3942717 105.76367 -33.583139 11.429262 -72.645204 -73.483873 
	-2.3942717 105.76367 -37.776107 7.9427064 -72.645204 -73.483873 -33.583139 11.429262 
	-33.583139 11.429262 -72.645204 -73.483873 -37.776018 7.9427993 -2.3942707 105.76373 
	-72.645204 -73.483873 -33.583139 11.429262 -2.3942707 105.76373 -37.776018 7.9427993 
2.53e+010 -37.490019 -1.0159548 -2.4010648 93.34869 -33.293686 2.4490734 -72.123502 -95.75355 
	-2.4010648 93.34869 -37.490019 -1.0159548 -72.123502 -95.75355 -33.293686 2.4490734 
	-33.293686 2.4490734 -72.123502 -95.75355 -37.489928 -1.0158626 -2.4010638 93.348755 
	-72.123502 -95.75355 -33.293686 2.4490734 -2.4010638 93.348755 -37.489928 -1.0158626 
2.54e+010 -37.585272 -10.037652 -2.4076115 80.933959 -33.385785 -6.5942541 -72.008578 -118.21698 
	-2.4076115 80.933959 -37.585272 -10.037652 -72.008578 -118.21698 -33.385785 -6.5942541 
	-33.385785 -6.5942541 -72.008578 -118.21698 -37.58518 -10.037563 -2.4076106 80.934024 
	-72.008578 -118.21698 -33.385785 -6.5942541 -2.4076106 80.934024 -37.58518 -10.037563 
2.55e+010 -38.06797 -18.816592 -2.4139275 68.518674 -33.865565 -15.394313 -72.288229 -140.63727 
	-2.4139275 68.518674 -38.06797 -18.816592 -72.288229 -140.63727 -33.865565 -15.394313 
	-33.865565 -15.394313 -72.288229 -140.63727 -38.067862 -18.816582 -2.4139264 68.518615 
	-72.288229 -140.63727 -33.865565 -15.394313 -2.4139264 68.518615 -38.067862 -18.816582 
2.56e+010 -38.974883 -26.958281 -2.4200685 56.102262 -34.769759 -23.555933 -72.986828 -162.75826 
	-2.4200685 56.102262 -38.974883 -26.958281 -72.986828 -162.75826 -34.769759 -23.555933 
	-34.769759 -23.555933 -72.986828 -162.75826 -38.974818 -26.958376 -2.4200676 56.102048 
	-72.986828 -162.75826 -34.769759 -23.555933 -2.4200676 56.102048 -38.974818 -26.958376 
2.57e+010 -40.381411 -33.790958 -2.4261224 43.684363 -36.173676 -30.406721 -74.169282 175.77247 
	-2.4261224 43.684363 -40.381411 -33.790958 -74.169282 175.77247 -36.173676 -30.406721 
	-36.173676 -30.406721 -74.169282 175.77247 -40.381359 -33.790974 -2.4261214 43.684272 
	-74.169282 175.77247 -36.173676 -30.406721 -2.4261214 43.684272 -40.381359 -33.790974 
2.58e+010 -42.411121 -37.903046 -2.432191 31.264889 -38.200786 -34.53474 -75.965368 155.66117 
	-2.432191 31.264889 -42.411121 -37.903046 -75.965368 155.66117 -38.200786 -34.53474 
	-38.200786 -34.53474 -75.965368 155.66117 -42.411074 -37.903035 -2.4321903 31.264798 
	-75.965368 155.66117 -38.200786 -34.53474 -2.4321903 31.264798 -42.411074 -37.903035 
2.59e+010 -45.182066 -35.799205 -2.438373 18.844167 -40.9689 -32.444053 -78.632417 138.74183 
	-2.438373 18.844167 -45.182066 -35.799205 -78.632417 138.74183 -40.9689 -32.444053 
	-40.9689 -32.444053 -78.632417 138.74183 -45.182026 -35.799129 -2.4383721 18.844076 
	-78.632417 138.74183 -40.9689 -32.444053 -2.4383721 18.844076 -45.182026 -35.799129 
2.6e+010 -48.145514 -19.240689 -2.4447441 6.4226558 -43.928695 -15.896987 -82.559882 130.98132 
	-2.4447441 6.4226558 -48.145514 -19.240689 -82.559882 130.98132 -43.928695 -15.896987 
	-43.928695 -15.896987 -82.559882 130.98132 -48.145471 -19.240193 -2.4447433 6.4224417 
	-82.559882 130.98132 -43.928695 -15.896987 -2.4447433 6.4224417 -48.145471 -19.240193 
2.61e+010 -48.209762 11.5962 -2.4513445 -5.9995468 -43.988776 14.919848 -86.357238 151.51344 
	-2.4513445 -5.9995468 -48.209762 11.5962 -86.357238 151.51344 -43.988776 14.919848 
	-43.988776 14.919848 -86.357238 151.51344 -48.209685 11.596438 -2.4513436 -5.9996377 
	-86.357238 151.51344 -43.988776 14.919848 -2.4513436 -5.9996377 -48.209685 11.596438 
2.62e+010 -45.287197 28.666746 -2.45817 -18.42096 -41.063219 31.969548 -83.442648 178.42844 
	-2.45817 -18.42096 -45.287197 28.666746 -83.442648 178.42844 -41.063219 31.969548 
	-41.063219 31.969548 -83.442648 178.42844 -45.287062 28.666934 -2.458169 -18.421175 
	-83.442648 178.42844 -41.063219 31.969548 -2.458169 -18.421175 -45.287062 28.666934 
2.63e+010 -42.514792 31.038616 -2.4651747 -30.841385 -38.28782 34.324281 -79.31402 173.92061 
	-2.4651747 -30.841385 -42.514792 31.038616 -79.31402 173.92061 -38.28782 34.324281 
	-38.28782 34.324281 -79.31402 173.92061 -42.514669 31.038633 -2.4651738 -30.841599 
	-79.31402 173.92061 -38.28782 34.324281 -2.4651738 -30.841599 -42.514669 31.038633 
2.64e+010 -40.483632 27.066574 -2.4722782 -43.260405 -36.253426 30.335405 -76.479991 158.05219 
	-2.4722782 -43.260405 -40.483632 27.066574 -76.479991 158.05219 -36.253426 30.335405 
	-36.253426 30.335405 -76.479991 158.05219 -40.483557 27.066569 -2.4722772 -43.260495 
	-76.479991 158.05219 -36.253426 30.335405 -2.4722772 -43.260495 -40.483557 27.066569 
2.65e+010 -39.078958 20.334462 -2.4793815 -55.677739 -34.84538 23.585442 -74.582928 138.36229 
	-2.4793815 -55.677739 -39.078958 20.334462 -74.582928 138.36229 -34.84538 23.585442 
	-34.84538 23.585442 -74.582928 138.36229 -39.078856 20.334373 -2.4793806 -55.677953 
	-74.582928 138.36229 -34.84538 23.585442 -2.4793806 -55.677953 -39.078856 20.334373 
2.66e+010 -38.175767 12.286649 -2.486385 -68.093645 -33.938864 15.518655 -73.335964 117.11081 
	-2.486385 -68.093645 -38.175767 12.286649 -73.335964 117.11081 -33.938864 15.518655 
	-33.938864 15.518655 -73.335964 117.11081 -38.175673 12.286544 -2.486384 -68.09386 
	-73.335964 117.11081 -33.938864 15.518655 -2.486384 -68.09386 -38.175673 12.286544 
2.67e+010 -37.697177 3.6096503 -2.4932069 -80.508519 -33.457089 6.8218221 -72.589901 95.131672 
	-2.4932069 -80.508519 -37.697177 3.6096503 -72.589901 95.131672 -33.457089 6.8218221 
	-33.457089 6.8218221 -72.589901 95.131672 -37.697112 3.6096157 -2.493206 -80.50861 
	-72.589901 95.131672 -33.457089 6.8218221 -2.493206 -80.50861 -37.697112 3.6096157 
2.68e+010 -37.604976 -5.2926748 -2.4997984 -92.923222 -33.361902 -2.1007776 -72.269211 72.819777 
	-2.4997984 -92.923222 -37.604976 -5.2926748 -72.269211 72.819777 -33.361902 -2.1007776 
	-33.361902 -2.1007776 -72.269211 72.819777 -37.604914 -5.2927103 -2.4997974 -92.923313 
	-72.269211 72.819777 -33.361902 -2.1007776 -2.4997974 -92.923313 -37.604914 -5.2927103 
2.69e+010 -37.891242 -14.104825 -2.5061518 -105.33774 -33.645397 -10.932966 -72.344446 50.451387 
	-2.5061518 -105.33774 -37.891242 -14.104825 -72.344446 50.451387 -33.645397 -10.932966 
	-33.645397 -10.932966 -72.344446 50.451387 -37.891183 -14.10486 -2.5061509 -105.33783 
	-72.344446 50.451387 -33.645397 -10.932966 -2.5061509 -105.33783 -37.891183 -14.10486 
2.7e+010 -38.576309 -22.482864 -2.5123029 -117.7531 -34.327904 -19.330167 -72.819204 28.23435 
	-2.5123029 -117.7531 -38.576309 -22.482864 -72.819204 28.23435 -34.327904 -19.330167 
	-34.327904 -19.330167 -72.819204 28.23435 -38.576254 -22.482897 -2.5123021 -117.75319 
	-72.819204 28.23435 -34.327904 -19.330167 -2.5123021 -117.75319 -38.576254 -22.482897 
2.71e+010 -39.713011 -29.91326 -2.5183237 -130.16976 -35.462198 -26.778265 -73.735041 6.4731117 
	-2.5183237 -130.16976 -39.713011 -29.91326 -73.735041 6.4731117 -35.462198 -26.778265 
	-35.462198 -26.778265 -73.735041 6.4731117 -39.71296 -29.913285 -2.5183226 -130.16985 
	-73.735041 6.4731117 -35.462198 -26.778265 -2.5183226 -130.16985 -39.71296 -29.913285 
2.72e+010 -41.395174 -35.425639 -2.5243083 -142.58783 -37.141992 -32.306377 -75.185238 -14.316948 
	-2.5243083 -142.58783 -41.395174 -35.425639 -75.185238 -14.316948 -37.141992 -32.306377 
	-37.141992 -32.306377 -75.185238 -14.316948 -41.395127 -35.425646 -2.5243073 -142.58792 
	-75.185238 -14.316948 -37.141992 -32.306377 -2.5243073 -142.58792 -41.395127 -35.425646 
2.73e+010 -43.747788 -36.823959 -2.5303574 -155.00737 -39.492159 -33.717973 -77.344662 -33.032374 
	-2.5303574 -155.00737 -43.747788 -36.823959 -77.344662 -33.032374 -39.492159 -33.717973 
	-39.492159 -33.717973 -77.344662 -33.032374 -43.747756 -36.823898 -2.5303565 -155.00758 
	-77.344662 -33.032374 -39.492159 -33.717973 -2.5303565 -155.00758 -43.747756 -36.823898 
2.74e+010 -46.695948 -28.668382 -2.5365579 -167.42805 -42.437399 -25.572987 -80.526217 -46.525764 
	-2.5365579 -167.42805 -46.695948 -28.668382 -80.526217 -46.525764 -42.437399 -25.572987 
	-42.437399 -25.572987 -80.526217 -46.525764 -46.695921 -28.668081 -2.5365569 -167.42826 
	-80.526217 -46.525764 -42.437399 -25.572987 -2.5365569 -167.42826 -46.695921 -28.668081 
2.75e+010 -48.559397 -3.4622938 -2.5429678 -179.84933 -44.296912 -0.38062596 -84.821172 -43.687083 
	-2.5429678 -179.84933 -48.559397 -3.4622938 -84.821172 -43.687083 -44.296912 -0.38062596 
	-44.296912 -0.38062596 -84.821172 -43.687083 -48.559339 -3.4620368 -2.5429668 -179.84942 
	-84.821172 -43.687083 -44.296912 -0.38062596 -2.5429668 -179.84942 -48.559339 -3.4620368 
2.76e+010 -46.758284 21.984607 -2.5496049 167.72956 -42.49252 25.04522 -85.638957 -12.146846 
	-2.5496049 167.72956 -46.758284 21.984607 -85.638957 -12.146846 -42.49252 25.04522 
	-42.49252 25.04522 -85.638957 -12.146846 -46.758156 21.984936 -2.5496039 167.72934 
	-85.638957 -12.146846 -42.49252 25.04522 -2.5496039 167.72934 -46.758156 21.984936 
2.77e+010 -43.822657 30.378814 -2.556445 155.30885 -39.554231 33.422042 -81.429171 -2.8251264 
	-2.556445 155.30885 -43.822657 30.378814 -81.429171 -2.8251264 -39.554231 33.422042 
	-39.554231 33.422042 -81.429171 -2.8251264 -43.822532 30.378898 -2.5564441 155.30864 
	-81.429171 -2.8251264 -39.554231 33.422042 -2.5564441 155.30864 -43.822532 30.378898 
2.78e+010 -41.474796 29.106487 -2.5634243 142.88963 -37.203479 32.134106 -78.011964 -14.240047 
	-2.5634243 142.88963 -41.474796 29.106487 -78.011964 -14.240047 -37.203479 32.134106 
	-37.203479 32.134106 -78.011964 -14.240047 -41.474683 29.106462 -2.5634233 142.88941 
	-78.011964 -14.240047 -37.203479 32.134106 -2.5634233 142.88941 -41.474683 29.106462 
2.79e+010 -39.798732 23.681472 -2.5704532 130.47188 -35.524353 26.693003 -75.697687 -32.180667 
	-2.5704532 130.47188 -39.798732 23.681472 -75.697687 -32.180667 -35.524353 26.693003 
	-35.524353 26.693003 -75.697687 -32.180667 -39.798661 23.681457 -2.5704523 130.47179 
	-75.697687 -32.180667 -35.524353 26.693003 -2.5704523 130.47179 -39.798661 23.681457 
2.8e+010 -38.669412 16.332521 -2.5774328 118.05575 -34.391914 19.326841 -74.148282 -52.615282 
	-2.5774328 118.05575 -38.669412 16.332521 -74.148282 -52.615282 -34.391914 19.326841 
	-34.391914 19.326841 -74.148282 -52.615282 -38.669345 16.332493 -2.577432 118.05566 
	-74.148282 -52.615282 -34.391914 19.326841 -2.577432 118.05566 -38.669345 16.332493 
2.81e+010 -37.992008 8.0438844 -2.5842722 105.64085 -33.711478 11.019902 -73.160567 -74.184045 
	-2.5842722 105.64085 -37.992008 8.0438844 -73.160567 -74.184045 -33.711478 11.019902 
	-33.711478 11.019902 -73.160567 -74.184045 -37.991922 8.0437717 -2.5842715 105.64064 
	-73.160567 -74.184045 -33.711478 11.019902 -2.5842715 105.64064 -37.991922 8.0437717 
2.82e+010 -37.712664 -0.66241966 -2.5909062 93.226694 -33.42928 2.2947272 -72.627986 -96.252051 
	-2.5909062 93.226694 -37.712664 -0.66241966 -72.627986 -96.252051 -33.42928 2.2947272 
	-33.42928 2.2947272 -72.627986 -96.252051 -37.712603 -0.66245768 -2.5909054 93.226603 
	-72.627986 -96.252051 -33.42928 2.2947272 -2.5909054 93.226603 -37.712603 -0.66245768 
2.83e+010 -37.809782 -9.4342068 -2.5973065 80.812776 -33.523741 -6.4960951 -72.500001 -118.53135 
	-2.5973065 80.812776 -37.809782 -9.4342068 -72.500001 -118.53135 -33.523741 -6.4960951 
	-33.523741 -6.4960951 -72.500001 -118.53135 -37.809709 -9.434324 -2.5973056 80.812562 
	-72.500001 -118.53135 -33.523741 -6.4960951 -2.5973056 80.812562 -37.809709 -9.434324 
2.84e+010 -38.289333 -17.947104 -2.6034873 68.39793 -34.000864 -15.027386 -72.765205 -140.7546 
	-2.6034873 68.39793 -38.289333 -17.947104 -72.765205 -140.7546 -34.000864 -15.027386 
	-34.000864 -15.027386 -72.765205 -140.7546 -38.289279 -17.947141 -2.6034863 68.397839 
	-72.765205 -140.7546 -34.000864 -15.027386 -2.6034863 68.397839 -38.289279 -17.947141 
2.85e+010 -39.185915 -25.78314 -2.6095019 55.982415 -34.895183 -22.880682 -73.443471 -162.68722 
	-2.6095019 55.982415 -39.185915 -25.78314 -73.443471 -162.68722 -34.895183 -22.880682 
	-34.895183 -22.880682 -73.443471 -162.68722 -39.185864 -25.78317 -2.6095009 55.982324 
	-73.443471 -162.68722 -34.895183 -22.880682 -2.6095009 55.982324 -39.185864 -25.78317 
2.86e+010 -40.568644 -32.239271 -2.6154335 43.565606 -36.275742 -29.352393 -74.597798 176.06496 
	-2.6154335 43.565606 -40.568644 -32.239271 -74.597798 176.06496 -36.275742 -29.352393 
	-36.275742 -29.352393 -74.597798 176.06496 -40.568596 -32.239338 -2.6154325 43.565392 
	-74.597798 176.06496 -36.275742 -29.352393 -2.6154325 43.565392 -40.568596 -32.239338 
2.87e+010 -42.543613 -35.868549 -2.6213797 31.147174 -38.248539 -32.995041 -76.348431 156.22259 
	-2.6213797 31.147174 -42.543613 -35.868549 -76.348431 156.22259 -38.248539 -32.995041 
	-38.248539 -32.995041 -76.348431 156.22259 -42.543577 -35.868548 -2.6213788 31.14696 
	-76.348431 156.22259 -38.248539 -32.995041 -2.6213788 31.14696 -42.543577 -35.868548 
2.88e+010 -45.17874 -33.246305 -2.627434 18.727559 -40.881229 -30.383538 -78.930853 139.6412 
	-2.627434 18.727559 -45.17874 -33.246305 -78.930853 139.6412 -40.881229 -30.383538 
	-40.881229 -30.383538 -78.930853 139.6412 -45.178715 -33.246148 -2.6274329 18.727345 
	-78.930853 139.6412 -40.881229 -30.383538 -2.6274329 18.727345 -45.178715 -33.246148 
2.89e+010 -47.854485 -17.136959 -2.6336689 6.3070719 -43.553735 -14.283951 -82.648155 131.98363 
	-2.6336689 6.3070719 -47.854485 -17.136959 -82.648155 131.98363 -43.553735 -14.283951 
	-43.553735 -14.283951 -82.648155 131.98363 -47.854445 -17.136501 -2.6336679 6.3068577 
	-82.648155 131.98363 -43.553735 -14.283951 -2.6336679 6.3068577 -47.854445 -17.136501 
2.9e+010 -47.875089 11.011996 -2.6401225 -6.1136927 -43.570698 13.847411 -86.172911 149.78498 
	-2.6401225 -6.1136927 -47.875089 11.011996 -86.172911 149.78498 -43.570698 13.847411 
	-43.570698 13.847411 -86.172911 149.78498 -47.874984 11.01247 -2.6401215 -6.1139069 
	-86.172911 149.78498 -43.570698 13.847411 -2.6401215 -6.1139069 -47.874984 11.01247 
2.91e+010 -45.221639 27.249129 -2.6467915 -18.53409 -40.914703 30.065891 -83.742328 174.98206 
	-2.6467915 -18.53409 -45.221639 27.249129 -83.742328 174.98206 -40.914703 30.065891 
	-40.914703 30.065891 -83.742328 174.98206 -45.221561 27.249223 -2.6467905 -18.534181 
	-83.742328 174.98206 -40.914703 30.065891 -2.6467905 -18.534181 -45.221561 27.249223 
2.92e+010 -42.598034 29.957674 -2.6536318 -30.953424 -38.28854 32.759416 -79.796188 171.62417 
	-2.6536318 -30.953424 -42.598034 29.957674 -79.796188 171.62417 -38.28854 32.759416 
	-38.28854 32.759416 -79.796188 171.62417 -42.59796 29.957698 -2.6536308 -30.953515 
	-79.796188 171.62417 -38.28854 32.759416 -2.6536308 -30.953515 -42.59796 29.957698 
2.93e+010 -40.633832 26.392882 -2.6605673 -43.371698 -36.321535 29.179909 -76.993102 156.483 
	-2.6605673 -43.371698 -40.633832 26.392882 -76.993102 156.483 -36.321535 29.179909 
	-36.321535 29.179909 -76.993102 156.483 -40.633728 26.392828 -2.6605664 -43.371913 
	-76.993102 156.483 -36.321535 29.179909 -2.6605664 -43.371913 -40.633728 26.392828 
2.94e+010 -39.262236 20.001484 -2.6675034 -55.788206 -34.947054 22.772943 -75.096917 137.22831 
	-2.6675034 -55.788206 -39.262236 20.001484 -75.096917 137.22831 -34.947054 22.772943 
	-34.947054 22.772943 -75.096917 137.22831 -39.26217 20.00146 -2.6675024 -55.788297 
	-75.096917 137.22831 -34.947054 22.772943 -2.6675024 -55.788297 -39.26217 20.00146 
2.95e+010 -38.376708 12.240566 -2.674345 -68.203228 -34.058644 14.995295 -73.842931 116.28373 
	-2.674345 -68.203228 -38.376708 12.240566 -73.842931 116.28373 -34.058644 14.995295 
	-34.058644 14.995295 -73.842931 116.28373 -38.376621 12.240458 -2.674344 -68.203442 
	-73.842931 116.28373 -34.058644 14.995295 -2.674344 -68.203442 -38.376621 12.240458 
2.96e+010 -37.90746 3.819568 -2.6810142 -80.617387 -33.586669 6.5567825 -73.087192 94.536595 
	-2.6810142 -80.617387 -37.90746 3.819568 -73.087192 94.536595 -33.586669 6.5567825 
	-33.586669 6.5567825 -73.087192 94.536595 -37.9074 3.8195304 -2.6810132 -80.617478 
	-73.087192 94.536595 -33.586669 6.5567825 -2.6810132 -80.617478 -37.9074 3.8195304 
2.97e+010 -37.819123 -4.837747 -2.6874644 -93.030994 -33.495778 -2.1184532 -72.75501 72.422123 
	-2.6874644 -93.030994 -37.819123 -4.837747 -72.75501 72.422123 -33.495778 -2.1184532 
	-33.495778 -2.1184532 -72.75501 72.422123 -37.819066 -4.8377852 -2.6874633 -93.031084 
	-72.75501 72.422123 -33.495778 -2.1184532 -2.6874633 -93.031084 -37.819066 -4.8377852 
2.98e+010 -38.10443 -13.398855 -2.6936882 -105.44496 -33.778724 -10.697182 -72.816269 50.233103 
	-2.6936882 -105.44496 -38.10443 -13.398855 -72.816269 50.233103 -33.778724 -10.697182 
	-33.778724 -10.697182 -72.816269 50.233103 -38.104349 -13.398782 -2.6936871 -105.44489 
	-72.816269 50.233103 -33.778724 -10.697182 -2.6936871 -105.44489 -38.104349 -13.398782 
2.99e+010 -38.782601 -21.499876 -2.6997195 -117.85944 -34.454738 -18.815048 -73.274361 28.206925 
	-2.6997195 -117.85944 -38.782601 -21.499876 -73.274361 28.206925 -34.454738 -18.815048 
	-34.454738 -18.815048 -73.274361 28.206925 -38.78251 -21.499878 -2.6997185 -117.8595 
	-73.274361 28.206925 -34.454738 -18.815048 -2.6997185 -117.8595 -38.78251 -21.499878 
3e+010 -39.902614 -28.602668 -2.7056266 -130.27542 -35.572763 -25.933232 -74.167032 6.6466497 
	-2.7056266 -130.27542 -39.902614 -28.602668 -74.167032 6.6466497 -35.572763 -25.933232 
	-35.572763 -25.933232 -74.167032 6.6466497 -39.902567 -28.602696 -2.7056256 -130.27551 
	-74.167032 6.6466497 -35.572763 -25.933232 -2.7056256 -130.27551 -39.902567 -28.602696 
3.01e+010 -41.547911 -33.70515 -2.7114997 -142.69261 -37.21608 -31.049165 -75.580727 -13.91665 
	-2.7114997 -142.69261 -41.547911 -33.70515 -75.580727 -13.91665 -37.21608 -31.049165 
	-37.21608 -31.049165 -75.580727 -13.91665 -41.547869 -33.70516 -2.7114987 -142.6927 
	-75.580727 -13.91665 -37.21608 -31.049165 -2.7114987 -142.6927 -41.547869 -33.70516 
3.02e+010 -43.81458 -34.608777 -2.7174342 -155.1112 -39.480652 -31.963883 -77.680262 -32.338711 
	-2.7174342 -155.1112 -43.81458 -34.608777 -77.680262 -32.338711 -39.480652 -31.963883 
	-39.480652 -31.963883 -77.680262 -32.338711 -43.814544 -34.608745 -2.7174332 -155.11129 
	-77.680262 -32.338711 -39.480652 -31.963883 -2.7174332 -155.11129 -43.814544 -34.608745 
3.03e+010 -46.559353 -26.233104 -2.7235134 -167.53091 -42.222802 -23.597052 -80.736632 -45.536752 
	-2.7235134 -167.53091 -46.559353 -26.233104 -80.736632 -45.536752 -42.222802 -23.597052 
	-42.222802 -23.597052 -80.736632 -45.536752 -46.559274 -26.233002 -2.7235125 -167.53097 
	-80.736632 -45.536752 -42.222802 -23.597052 -2.7235125 -167.53097 -46.559274 -26.233002 
3.04e+010 -48.189426 -2.7375244 -2.7297927 -179.95117 -43.849409 -0.11375098 -84.741069 -43.399524 
	-2.7297927 -179.95117 -48.189426 -2.7375244 -84.741069 -43.399524 -43.849409 -0.11375098 
	-43.849409 -0.11375098 -84.741069 -43.399524 -48.189352 -2.737642 -2.7297917 -179.9511 
	-84.741069 -43.399524 -43.849409 -0.11375098 -2.7297917 -179.9511 -48.189352 -2.737642 
3.05e+010 -46.571279 20.74853 -2.7362892 167.62875 -42.228411 23.353719 -85.673079 -15.447095 
	-2.7362892 167.62875 -46.571279 20.74853 -85.673079 -15.447095 -42.228411 23.353719 
	-42.228411 23.353719 -85.673079 -15.447095 -46.571175 20.748649 -2.7362883 167.62869 
	-85.673079 -15.447095 -42.228411 23.353719 -2.7362883 167.62869 -46.571175 20.748649 
3.06e+010 -43.841655 29.126391 -2.7429796 155.20931 -39.496502 31.716155 -81.8376 -5.6161405 
	-2.7429796 155.20931 -43.841655 29.126391 -81.8376 -5.6161405 -39.496502 31.716155 
	-39.496502 31.716155 -81.8376 -5.6161405 -43.84155 29.126448 -2.7429785 155.20925 
	-81.8376 -5.6161405 -39.496502 31.716155 -2.7429785 155.20925 -43.84155 29.126448 
3.07e+010 -41.590501 28.245904 -2.7498035 142.79101 -37.242867 30.821977 -78.500626 -16.093233 
	-2.7498035 142.79101 -41.590501 28.245904 -78.500626 -16.093233 -37.242867 30.821977 
	-37.242867 30.821977 -78.500626 -16.093233 -41.590435 28.245959 -2.7498025 142.79108 
	-78.500626 -16.093233 -37.242867 30.821977 -2.7498025 142.79108 -41.590435 28.245959 
3.08e+010 -39.960292 23.184045 -2.7566757 130.37425 -35.60997 25.74595 -76.199932 -33.503484 
	-2.7566757 130.37425 -39.960292 23.184045 -76.199932 -33.503484 -35.60997 25.74595 
	-35.60997 25.74595 -76.199932 -33.503484 -39.960192 23.184055 -2.7566747 130.3742 
	-76.199932 -33.503484 -35.60997 25.74595 -2.7566747 130.3742 -39.960192 23.184055 
3.09e+010 -38.85461 16.138739 -2.7635017 117.95852 -34.501594 18.685482 -74.647208 -53.58949 
	-2.7635017 117.95852 -38.85461 16.138739 -74.647208 -53.58949 -34.501594 18.685482 
	-34.501594 18.685482 -74.647208 -53.58949 -38.854538 16.138812 -2.7635005 117.95858 
	-74.647208 -53.58949 -34.501594 18.685482 -2.7635005 117.95858 -38.854538 16.138812 
3.1e+010 -38.189882 8.1140496 -2.7701944 105.54436 -33.834236 10.644603 -73.651126 -74.878412 
	-2.7701944 105.54436 -38.189882 8.1140496 -73.651126 -74.878412 -33.834236 10.644603 
	-33.834236 10.644603 -73.651126 -74.878412 -38.189808 8.1141235 -2.7701934 105.54442 
	-73.651126 -74.878412 -33.834236 10.644603 -2.7701934 105.54442 -38.189808 8.1141235 
3.11e+010 -37.916641 -0.34810808 -2.7766917 93.130909 -33.558528 2.1656325 -73.107919 -96.753697 
	-2.7766917 93.130909 -37.916641 -0.34810808 -73.107919 -96.753697 -33.558528 2.1656325 
	-33.558528 2.1656325 -73.107919 -96.753697 -37.916566 -0.34803454 -2.7766907 93.130973 
	-73.107919 -96.753697 -33.558528 2.1656325 -2.7766907 93.130973 -37.916566 -0.34803454 
3.12e+010 -38.014849 -8.8781316 -2.7829667 80.717695 -33.654457 -6.381303 -72.968003 -118.83283 
	-2.7829667 80.717695 -38.014849 -8.8781316 -72.968003 -118.83283 -33.654457 -6.381303 
	-33.654457 -6.381303 -72.968003 -118.83283 -38.014758 -8.878139 -2.7829657 80.717636 
	-72.968003 -118.83283 -33.654457 -6.381303 -2.7829657 80.717636 -38.014758 -8.878139 
3.13e+010 -38.490229 -17.134146 -2.7890324 68.303857 -34.127778 -14.653595 -73.217144 -140.88744 
	-2.7890324 68.303857 -38.490229 -17.134146 -73.217144 -140.88744 -34.127778 -14.653595 
	-34.127778 -14.653595 -73.217144 -140.88744 -38.490151 -17.134079 -2.7890313 68.303922 
	-73.217144 -140.88744 -34.127778 -14.653595 -2.7890313 68.303922 -38.490151 -17.134079 
3.14e+010 -39.375114 -24.678137 -2.7949398 55.889122 -35.010757 -22.212785 -73.875063 -162.63469 
	-2.7949398 55.889122 -39.375114 -24.678137 -73.875063 -162.63469 -35.010757 -22.212785 
	-35.010757 -22.212785 -73.875063 -162.63469 -39.375028 -24.678141 -2.7949388 55.889063 
	-73.875063 -162.63469 -35.010757 -22.212785 -2.7949388 55.889063 -39.375028 -24.678141 
3.15e+010 -40.732223 -30.780876 -2.8007683 43.473036 -36.366044 -28.329012 -75.000936 176.32897 
	-2.8007683 43.473036 -40.732223 -30.780876 -75.000936 176.32897 -36.366044 -28.329012 
	-36.366044 -28.329012 -75.000936 176.32897 -40.73214 -30.780873 -2.8007673 43.472977 
	-75.000936 176.32897 -36.366044 -28.329012 -2.8007673 43.472977 -40.73214 -30.780873 
3.16e+010 -42.650712 -33.974374 -2.806611 31.05524 -38.282661 -31.533886 -76.709618 156.75488 
	-2.806611 31.05524 -42.650712 -33.974374 -76.709618 156.75488 -38.282661 -31.533886 
	-38.282661 -31.533886 -76.709618 156.75488 -42.650627 -33.97435 -2.80661 31.055305 
	-76.709618 156.75488 -38.282661 -31.533886 -2.80661 31.055305 -42.650627 -33.97435 
3.17e+010 -45.153843 -30.939664 -2.8125567 18.636598 -40.783661 -28.50815 -79.202903 140.44526 
	-2.8125567 18.636598 -45.153843 -30.939664 -79.202903 140.44526 -40.783661 -28.50815 
	-40.783661 -28.50815 -79.202903 140.44526 -45.153767 -30.939603 -2.8125557 18.63654 
	-79.202903 140.44526 -40.783661 -28.50815 -2.8125557 18.63654 -45.153767 -30.939603 
3.18e+010 -47.579745 -15.366742 -2.8186751 6.2171231 -43.206656 -12.943784 -82.730862 132.84296 
	-2.8186751 6.2171231 -47.579745 -15.366742 -82.730862 132.84296 -43.206656 -12.943784 
	-43.206656 -12.943784 -82.730862 132.84296 -47.579665 -15.366605 -2.8186741 6.2170645 
	-82.730862 132.84296 -43.206656 -12.943784 -2.8186741 6.2170645 -47.579665 -15.366605 
3.19e+010 -47.573439 10.469597 -2.8250024 -6.202742 -43.197175 12.876732 -86.022224 148.30104 
	-2.8250024 -6.202742 -47.573439 10.469597 -86.022224 148.30104 -43.197175 12.876732 
	-43.197175 12.876732 -86.022224 148.30104 -47.573377 10.469509 -2.8250014 -6.2026775 
	-86.022224 148.30104 -43.197175 12.876732 -2.8250014 -6.2026775 -47.573377 10.469509 
3.2e+010 -45.153814 25.930009 -2.8315359 -18.622013 -40.775284 28.320679 -84.003414 171.71388 
	-2.8315359 -18.622013 -45.153814 25.930009 -84.003414 171.71388 -40.775284 28.320679 
	-40.775284 28.320679 -84.003414 171.71388 -45.153713 25.930088 -2.8315349 -18.622072 
	-84.003414 171.71388 -40.775284 28.320679 -2.8315349 -18.622072 -45.153713 25.930088 
3.21e+010 -42.668944 28.915867 -2.8382335 -31.040511 -38.288213 31.293154 -80.24605 169.36786 
	-2.8382335 -31.040511 -42.668944 28.915867 -80.24605 169.36786 -38.288213 31.293154 
	-38.288213 31.293154 -80.24605 169.36786 -42.668844 28.915905 -2.8382323 -31.040569 
	-80.24605 169.36786 -38.288213 31.293154 -2.8382323 -31.040569 -42.668844 28.915905 
3.22e+010 -40.769454 25.725697 -2.8450223 -43.457732 -36.386304 28.089991 -77.482252 154.88035 
	-2.8450223 -43.457732 -40.769454 25.725697 -77.482252 154.88035 -36.386304 28.089991 
	-36.386304 28.089991 -77.482252 154.88035 -40.769357 25.725711 -2.8450213 -43.457791 
	-77.482252 154.88035 -36.386304 28.089991 -2.8450213 -43.457791 -40.769357 25.725711 
3.23e+010 -39.430112 19.657598 -2.8518126 -55.87341 -35.044421 22.008041 -75.586929 136.10149 
	-2.8518126 -55.87341 -39.430112 19.657598 -75.586929 136.10149 -35.044421 22.008041 
	-35.044421 22.008041 -75.586929 136.10149 -39.430024 19.657508 -2.8518116 -55.873624 
	-75.586929 136.10149 -35.044421 22.008041 -2.8518116 -55.873624 -39.430024 19.657508 
3.24e+010 -38.561634 12.172468 -2.8585135 -68.287787 -34.173437 14.50805 -74.327062 115.4504 
	-2.8585135 -68.287787 -38.561634 12.172468 -74.327062 115.4504 -34.173437 14.50805 
	-34.173437 14.50805 -74.327062 115.4504 -38.561554 12.172359 -2.8585125 -68.288001 
	-74.327062 115.4504 -34.173437 14.50805 -2.8585125 -68.288001 -38.561554 12.172359 
3.25e+010 -38.101168 3.9989626 -2.8650505 -80.7015 -33.710586 6.3189252 -73.562009 93.937932 
	-2.8650505 -80.7015 -38.101168 3.9989626 -73.562009 93.937932 -33.710586 6.3189252 
	-33.710586 6.3189252 -73.562009 93.937932 -38.101078 3.9989547 -2.8650495 -80.701559 
	-73.562009 93.937932 -33.710586 6.3189252 -2.8650495 -80.701559 -38.101078 3.9989547 
3.26e+010 -38.016021 -4.4212862 -2.8713788 -93.114522 -33.623237 -2.1172971 -73.218273 72.014694 
	-2.8713788 -93.114522 -38.016021 -4.4212862 -73.218273 72.014694 -33.623237 -2.1172971 
	-33.623237 -2.1172971 -73.218273 72.014694 -38.015948 -4.421217 -2.8713777 -93.114457 
	-73.218273 72.014694 -33.623237 -2.1172971 -2.8713777 -93.114457 -38.015948 -4.421217 
3.27e+010 -38.29951 -12.739396 -2.8774911 -105.52761 -33.904712 -10.451206 -73.265817 50.00831 
	-2.8774911 -105.52761 -38.29951 -12.739396 -73.265817 50.00831 -33.904712 -10.451206 
	-33.904712 -10.451206 -73.265817 50.00831 -38.299424 -12.739406 -2.8774901 -105.52767 
	-73.265817 50.00831 -33.904712 -10.451206 -2.8774901 -105.52767 -38.299424 -12.739406 
3.28e+010 -38.969691 -20.574309 -2.88342 -117.94147 -34.573067 -18.301063 -73.706861 28.165886 
	-2.88342 -117.94147 -38.969691 -20.574309 -73.706861 28.165886 -34.573067 -18.301063 
	-34.573067 -18.301063 -73.706861 28.165886 -38.969638 -20.574417 -2.883419 -117.94168 
	-73.706861 28.165886 -34.573067 -18.301063 -2.883419 -117.94168 -38.969638 -20.574417 
3.29e+010 -40.071587 -27.366105 -2.8892304 -130.3565 -35.673259 -25.106338 -74.576662 6.8036429 
	-2.8892304 -130.3565 -40.071587 -27.366105 -74.576662 6.8036429 -35.673259 -25.106338 
	-35.673259 -25.106338 -74.576662 6.8036429 -40.071542 -27.36619 -2.8892293 -130.35672 
	-74.576662 6.8036429 -35.673259 -25.106338 -2.8892293 -130.35672 -40.071542 -27.36619 
3.3e+010 -41.678308 -32.089873 -2.8950084 -142.77293 -37.278302 -29.841705 -75.956022 -13.532845 
	-2.8950084 -142.77293 -41.678308 -32.089873 -75.956022 -13.532845 -37.278302 -29.841705 
	-37.278302 -29.841705 -75.956022 -13.532845 -41.678273 -32.089911 -2.8950073 -142.77315 
	-75.956022 -13.532845 -37.278302 -29.841705 -2.8950073 -142.77315 -41.678273 -32.089911 
3.31e+010 -43.859018 -32.56612 -2.9008451 -155.1907 -39.457198 -30.327276 -77.99361 -31.700357 
	-2.9008451 -155.1907 -43.859018 -32.56612 -77.99361 -31.700357 -39.457198 -30.327276 
	-39.457198 -30.327276 -77.99361 -31.700357 -43.858994 -32.566055 -2.900844 -155.19092 
	-77.99361 -31.700357 -39.457198 -30.327276 -2.900844 -155.19092 -43.858994 -32.566055 
3.32e+010 -46.416055 -24.09139 -2.9068203 -167.60967 -42.011887 -21.860016 -80.923887 -44.681723 
	-2.9068203 -167.60967 -46.416055 -24.09139 -80.923887 -44.681723 -42.011887 -21.860016 
	-42.011887 -21.860016 -80.923887 -44.681723 -46.415982 -24.091298 -2.9068192 -167.60973 
	-80.923887 -44.681723 -42.011887 -21.860016 -2.9068192 -167.60973 -46.415982 -24.091298 
3.33e+010 -47.855948 -2.1616062 -2.9129865 179.97096 -43.448682 0.058911446 -84.666883 -43.285484 
	-2.9129865 179.97096 -47.855948 -2.1616062 -84.666883 -43.285484 -43.448682 0.058911446 
	-43.448682 0.058911446 -84.666883 -43.285484 -47.855899 -2.1613968 -2.9129855 179.97087 
	-84.666883 -43.285484 -43.448682 0.058911446 -2.9129855 179.97087 -47.855899 -2.1613968 
3.34e+010 -46.395844 19.619139 -2.9193607 167.55189 -41.986009 21.823012 -85.694513 -18.432928 
	-2.9193607 167.55189 -46.395844 19.619139 -85.694513 -18.432928 -41.986009 21.823012 
	-41.986009 21.823012 -85.694513 -18.432928 -46.395698 19.619587 -2.9193596 167.55155 
	-85.694513 -18.432928 -41.986009 21.823012 -2.9193596 167.55155 -46.395698 19.619587 
3.35e+010 -43.85252 27.93838 -2.9259203 155.13318 -39.440733 30.128168 -82.213577 -8.3635999 
	-2.9259203 155.13318 -43.85252 27.93838 -82.213577 -8.3635999 -39.440733 30.128168 
	-39.440733 30.128168 -82.213577 -8.3635999 -43.852452 27.93843 -2.9259192 155.13309 
	-82.213577 -8.3635999 -39.440733 30.128168 -2.9259192 155.13309 -43.852452 27.93843 
3.36e+010 -41.693673 27.40674 -2.9326083 142.71582 -37.279705 29.584296 -78.963859 -17.944646 
	-2.9326083 142.71582 -41.693673 27.40674 -78.963859 -17.944646 -37.279705 29.584296 
	-37.279705 29.584296 -78.963859 -17.944646 -41.693609 27.406744 -2.9326071 142.71572 
	-78.963859 -17.944646 -37.279705 29.584296 -2.9326071 142.71572 -41.693609 27.406744 
3.37e+010 -40.108068 22.685554 -2.9393428 130.2998 -35.69174 24.85046 -76.679113 -34.818847 
	-2.9393428 130.2998 -40.108068 22.685554 -76.679113 -34.818847 -35.69174 24.85046 
	-35.69174 24.85046 -76.679113 -34.818847 -40.10795 22.685424 -2.9393418 130.29946 
	-76.679113 -34.818847 -35.69174 24.85046 -2.9393418 130.29946 -40.10795 22.685424 
3.38e+010 -39.025506 15.931368 -2.9460337 117.88514 -34.606801 18.082693 -75.124611 -54.556265 
	-2.9460337 117.88514 -39.025506 15.931368 -75.124611 -54.556265 -34.606801 18.082693 
	-34.606801 18.082693 -75.124611 -54.556265 -39.025401 15.931198 -2.9460327 117.8848 
	-75.124611 -54.556265 -34.606801 18.082693 -2.9460327 117.8848 -39.025401 15.931198 
3.39e+010 -38.372917 8.1616491 -2.9525983 105.4716 -33.951911 10.298461 -74.120927 -75.58347 
	-2.9525983 105.4716 -38.372917 8.1616491 -74.120927 -75.58347 -33.951911 10.298461 
	-33.951911 10.298461 -74.120927 -75.58347 -38.372823 8.1614589 -2.9525972 105.47127 
	-74.120927 -75.58347 -33.951911 10.298461 -2.9525972 105.47127 -38.372823 8.1614589 
3.4e+010 -38.105192 -0.063883663 -2.9589767 93.058747 -33.682038 2.0578321 -73.567587 -97.247085 
	-2.9589767 93.058747 -38.105192 -0.063883663 -73.567587 -97.247085 -33.682038 2.0578321 
	-33.682038 2.0578321 -73.567587 -97.247085 -38.105108 -0.064083453 -2.9589757 93.05841 
	-73.567587 -97.247085 -33.682038 2.0578321 -2.9589757 93.05841 -38.105108 -0.064083453 
3.41e+010 -38.203765 -8.3600214 -2.9651429 80.6456 -33.778666 -6.2533632 -73.414584 -119.15657 
	-2.9651429 80.6456 -38.203765 -8.3600214 -73.414584 -119.15657 -33.778666 -6.2533632 
	-33.778666 -6.2533632 -73.414584 -119.15657 -38.203717 -8.3600649 -2.9651419 80.645509 
	-73.414584 -119.15657 -33.778666 -6.2533632 -2.9651419 80.645509 -38.203717 -8.3600649 
3.42e+010 -38.674127 -16.36822 -2.9711094 68.232625 -34.247239 -14.276204 -73.648867 -141.02509 
	-2.9711094 68.232625 -38.674127 -16.36822 -73.648867 -141.02509 -34.247239 -14.276204 
	-34.247239 -14.276204 -73.648867 -141.02509 -38.674065 -16.368406 -2.9711085 68.232288 
	-73.648867 -141.02509 -34.247239 -14.276204 -2.9711085 68.232288 -38.674065 -16.368406 
3.43e+010 -39.546153 -23.633065 -2.9769251 55.818431 -35.117644 -21.55441 -74.287811 -162.58085 
	-2.9769251 55.818431 -39.546153 -23.633065 -74.287811 -162.58085 -35.117644 -21.55441 
	-35.117644 -21.55441 -74.287811 -162.58085 -39.546111 -23.6331 -2.9769239 55.81834 
	-74.287811 -162.58085 -35.117644 -21.55441 -2.9769239 55.81834 -39.546111 -23.6331 
3.44e+010 -40.876237 -29.404163 -2.9826652 43.40279 -36.446186 -27.337354 -75.384633 176.57865 
	-2.9826652 43.40279 -40.876237 -29.404163 -75.384633 176.57865 -36.446186 -27.337354 
	-36.446186 -27.337354 -75.384633 176.57865 -40.8762 -29.40427 -2.9826641 43.402453 
	-75.384633 176.57865 -36.446186 -27.337354 -2.9826641 43.402453 -40.8762 -29.40427 
3.45e+010 -42.737082 -32.205087 -2.9884188 30.986184 -38.305415 -30.147986 -77.050099 157.24938 
	-2.9884188 30.986184 -42.737082 -32.205087 -77.050099 157.24938 -38.305415 -30.147986 
	-38.305415 -30.147986 -77.050099 157.24938 -42.737061 -32.205084 -2.9884176 30.985847 
	-77.050099 157.24938 -38.305415 -30.147986 -2.9884176 30.985847 -42.737061 -32.205084 
3.46e+010 -45.113158 -28.84826 -2.9942709 18.568139 -40.679591 -26.798692 -79.459838 141.19176 
	-2.9942709 18.568139 -45.113158 -28.84826 -79.459838 141.19176 -40.679591 -26.798692 
	-40.679591 -26.798692 -79.459838 141.19176 -45.113128 -28.848193 -2.9942697 18.568048 
	-79.459838 141.19176 -40.679591 -26.798692 -2.9942697 18.568048 -45.113128 -28.848193 
3.47e+010 -47.321565 -13.860304 -3.0002882 6.1495412 -42.885377 -11.81803 -82.800996 133.53541 
	-3.0002882 6.1495412 -47.321565 -13.860304 -82.800996 133.53541 -42.885377 -11.81803 
	-42.885377 -11.81803 -82.800996 133.53541 -47.321528 -13.859691 -3.000287 6.1492036 
	-82.800996 133.53541 -42.885377 -11.81803 -3.000287 6.1492036 -47.321528 -13.859691 
3.48e+010 -47.299629 9.9645192 -3.0065053 -6.2693129 -42.860549 11.992662 -85.889526 146.86514 
	-3.0065053 -6.2693129 -47.299629 9.9645192 -85.889526 146.86514 -42.860549 11.992662 
	-42.860549 11.992662 -85.889526 146.86514 -47.299512 9.9651394 -3.0065042 -6.2696505 
	-85.889526 146.86514 -42.860549 11.992662 -3.0065042 -6.2696505 -47.299512 9.9651394 
3.49e+010 -45.084955 24.700387 -3.0129198 -18.687837 -40.643869 26.713358 -84.232986 168.59393 
	-3.0129198 -18.687837 -45.084955 24.700387 -84.232986 168.59393 -40.643869 26.713358 
	-40.643869 26.713358 -84.232986 168.59393 -45.084809 24.700641 -3.0129186 -18.688174 
	-84.232986 168.59393 -40.643869 26.713358 -3.0129186 -18.688174 -45.084809 24.700641 
3.5e+010 -42.729829 27.91367 -3.0194915 -31.105506 -38.286819 29.914468 -80.670362 167.10321 
	-3.0194915 -31.105506 -42.729829 27.91367 -80.670362 167.10321 -38.286819 29.914468 
	-38.286819 29.914468 -80.670362 167.10321 -42.729693 27.913688 -3.0194906 -31.105844 
	-80.670362 167.10321 -38.286819 29.914468 -3.0194906 -31.105844 -42.729693 27.913688 
3.51e+010 -40.892928 25.068624 -3.0261513 -43.521956 -36.447795 27.057758 -77.94634 153.332 
	-3.0261513 -43.521956 -40.892928 25.068624 -77.94634 153.332 -36.447795 27.057758 
	-36.447795 27.057758 -77.94634 153.332 -40.892806 25.06853 -3.0261502 -43.522294 
	-77.94634 153.332 -36.447795 27.057758 -3.0261502 -43.522294 -40.892806 25.06853 
3.52e+010 -39.585071 19.307755 -3.0328129 -55.93705 -35.137727 21.284567 -76.057023 134.96077 
	-3.0328129 -55.93705 -39.585071 19.307755 -76.057023 134.96077 -35.137727 21.284567 
	-35.137727 21.284567 -76.057023 134.96077 -39.585014 19.307728 -3.0328119 -55.937141 
	-76.057023 134.96077 -35.137727 21.284567 -3.0328119 -55.937141 -39.585014 19.307728 
3.53e+010 -38.733158 12.088257 -3.0393898 -68.350899 -34.283609 14.051716 -74.791876 114.59946 
	-3.0393898 -68.350899 -38.733158 12.088257 -74.791876 114.59946 -34.283609 14.051716 
	-34.283609 14.051716 -74.791876 114.59946 -38.733104 12.08822 -3.0393887 -68.35099 
	-74.791876 114.59946 -34.283609 14.051716 -3.0393887 -68.35099 -38.733104 12.08822 
3.54e+010 -38.281021 4.1548498 -3.0458105 -80.763754 -33.829335 6.1041726 -74.017542 93.320436 
	-3.0458105 -80.763754 -38.281021 4.1548498 -74.017542 93.320436 -33.829335 6.1041726 
	-33.829335 6.1041726 -74.017542 93.320436 -38.28092 4.1547614 -3.0458094 -80.763936 
	-74.017542 93.320436 -33.829335 6.1041726 -3.0458094 -80.763936 -38.28092 4.1547614 
3.55e+010 -38.198474 -4.0354401 -3.0520319 -93.176304 -33.744874 -2.1004681 -73.663224 71.618329 
	-3.0520319 -93.176304 -38.198474 -4.0354401 -73.663224 71.618329 -33.744874 -2.1004681 
	-33.744874 -2.1004681 -73.663224 71.618329 -38.198407 -4.0353769 -3.0520309 -93.176239 
	-73.663224 71.618329 -33.744874 -2.1004681 -3.0520309 -93.176239 -38.198407 -4.0353769 
3.56e+010 -38.479436 -12.11848 -3.0580476 -105.58879 -34.024086 -10.197755 -73.697128 49.787903 
	-3.0580476 -105.58879 -38.479436 -12.11848 -73.697128 49.787903 -34.024086 -10.197755 
	-34.024086 -10.197755 -73.697128 49.787903 -38.479346 -12.118569 -3.0580465 -105.58897 
	-73.697128 49.787903 -34.024086 -10.197755 -3.0580465 -105.58897 -38.479346 -12.118569 
3.57e+010 -39.140691 -19.697453 -3.0638878 -118.002 -34.683761 -17.790042 -74.12073 28.119363 
	-3.0638878 -118.002 -39.140691 -19.697453 -74.12073 28.119363 -34.683761 -17.790042 
	-34.683761 -17.790042 -74.12073 28.119363 -39.140608 -19.697534 -3.0638866 -118.00218 
	-74.12073 28.119363 -34.683761 -17.790042 -3.0638866 -118.00218 -39.140608 -19.697534 
3.58e+010 -40.223257 -26.194335 -3.0696147 -130.41659 -35.764877 -24.298803 -74.96622 6.9389323 
	-3.0696147 -130.41659 -40.223257 -26.194335 -74.96622 6.9389323 -35.764877 -24.298803 
	-35.764877 -24.298803 -74.96622 6.9389323 -40.223184 -26.194289 -3.0696136 -130.41653 
	-74.96622 6.9389323 -35.764877 -24.298803 -3.0696136 -130.41653 -40.223184 -26.194289 
3.59e+010 -41.790174 -30.568469 -3.0753106 -142.83226 -37.330334 -28.683061 -76.313053 -13.170536 
	-3.0753106 -142.83226 -41.790174 -30.568469 -76.313053 -13.170536 -37.330334 -28.683061 
	-37.330334 -28.683061 -76.313053 -13.170536 -41.790098 -30.568441 -3.0753094 -142.8322 
	-76.313053 -13.170536 -37.330334 -28.683061 -3.0753094 -142.8322 -41.790098 -30.568441 
3.6e+010 -43.885813 -30.677382 -3.0810627 -155.24922 -39.424384 -28.799939 -78.29001 -31.104045 
	-3.0810627 -155.24922 -43.885813 -30.677382 -78.29001 -31.104045 -39.424384 -28.799939 
	-39.424384 -28.799939 -78.29001 -31.104045 -43.885753 -30.677317 -3.0810615 -155.2494 
	-78.29001 -31.104045 -39.424384 -28.799939 -3.0810615 -155.2494 -43.885753 -30.677317 
3.61e+010 -46.270319 -22.196551 -3.0869472 -167.66758 -41.806809 -20.325335 -81.095571 -43.932718 
	-3.0869472 -167.66758 -46.270319 -22.196551 -81.095571 -43.932718 -41.806809 -20.325335 
	-41.806809 -20.325335 -81.095571 -43.932718 -46.270304 -22.196139 -3.086946 -167.66791 
	-81.095571 -43.932718 -41.806809 -20.325335 -3.086946 -167.66791 -46.270304 -22.196139 
3.62e+010 -47.553466 -1.697254 -3.0930144 179.91394 -43.087129 0.16396502 -84.610465 -43.22828 
	-3.0930144 179.91394 -47.553466 -1.697254 -84.610465 -43.22828 -43.087129 0.16396502 
	-43.087129 0.16396502 -84.610465 -43.22828 -47.553421 -1.6970622 -3.0930132 179.91385 
	-84.610465 -43.22828 -43.087129 0.16396502 -3.0930132 179.91385 -47.553421 -1.6970622 
3.63e+010 -46.230914 18.583924 -3.0992807 167.49534 -41.762308 20.429888 -85.706517 -21.22645 
	-3.0992807 167.49534 -46.230914 18.583924 -85.706517 -21.22645 -41.762308 20.429888 
	-41.762308 20.429888 -85.706517 -21.22645 -46.230861 18.583879 -3.0992796 167.4954 
	-85.706517 -21.22645 -41.762308 20.429888 -3.0992796 167.4954 -46.230861 18.583879 
3.64e+010 -43.857097 26.811513 -3.1057248 155.07773 -39.386686 28.644889 -82.560371 -11.057722 
	-3.1057248 155.07773 -43.857097 26.811513 -82.560371 -11.057722 -39.386686 28.644889 
	-39.386686 28.644889 -82.560371 -11.057722 -43.85697 26.811596 -3.1057237 155.07755 
	-82.560371 -11.057722 -39.386686 28.644889 -3.1057237 155.07755 -43.85697 26.811596 
3.65e+010 -41.786377 26.590766 -3.1122921 142.66092 -37.314065 28.413078 -79.407016 -19.844696 
	-3.1122921 142.66092 -41.786377 26.590766 -79.407016 -19.844696 -37.314065 28.413078 
	-37.314065 28.413078 -79.407016 -19.844696 -41.786256 26.59076 -3.1122909 142.66073 
	-79.407016 -19.844696 -37.314065 28.413078 -3.1122909 142.66073 -41.786256 26.59076 
3.66e+010 -40.244295 22.189752 -3.1189046 130.24563 -35.7699 24.000744 -77.139421 -36.152632 
	-3.1189046 130.24563 -40.244295 22.189752 -77.139421 -36.152632 -35.7699 24.000744 
	-35.7699 24.000744 -77.139421 -36.152632 -40.244182 22.1897 -3.1189036 130.24545 
	-77.139421 -36.152632 -35.7699 24.000744 -3.1189036 130.24545 -40.244182 22.1897 
3.67e+010 -39.184267 15.714378 -3.1254761 117.83141 -34.70778 17.513139 -75.583963 -55.544128 
	-3.1254761 117.83141 -39.184267 15.714378 -75.583963 -55.544128 -34.70778 17.513139 
	-34.70778 17.513139 -75.583963 -55.544128 -39.184161 15.714304 -3.1254749 117.83123 
	-75.583963 -55.544128 -34.70778 17.513139 -3.1254749 117.83123 -39.184161 15.714304 
3.68e+010 -38.543412 8.1913379 -3.1319272 105.41851 -34.064875 9.9769909 -74.572869 -76.307315 
	-3.1319272 105.41851 -38.543412 8.1913379 -74.572869 -76.307315 -34.064875 9.9769909 
	-34.064875 9.9769909 -74.572869 -76.307315 -38.543312 8.1912513 -3.131926 105.41833 
	-74.572869 -76.307315 -34.064875 9.9769909 -3.131926 105.41833 -38.543312 8.1912513 
3.69e+010 -38.280712 0.1953564 -3.1382006 93.00601 -33.800299 1.9674278 -74.009335 -97.756809 
	-3.1382006 93.00601 -38.280712 0.1953564 -74.009335 -97.756809 -33.800299 1.9674278 
	-33.800299 1.9674278 -74.009335 -97.756809 -38.280648 0.19541771 -3.1381996 93.006075 
	-74.009335 -97.756809 -33.800299 1.9674278 -3.1381996 93.006075 -38.280648 0.19541771 
3.7e+010 -38.379098 -7.8732635 -3.1442714 80.593867 -33.89696 -6.1148722 -73.84398 -119.47816 
	-3.1442714 80.593867 -38.379098 -7.8732635 -73.84398 -119.47816 -33.89696 -6.1148722 
	-33.89696 -6.1148722 -73.84398 -119.47816 -38.379032 -7.8732036 -3.1442702 80.593931 
	-73.84398 -119.47816 -33.89696 -6.1148722 -3.1442702 80.593931 -38.379032 -7.8732036 
3.71e+010 -38.843636 -15.642378 -3.1501515 68.181271 -34.359953 -13.897108 -74.063225 -141.16688 
	-3.1501515 68.181271 -38.843636 -15.642378 -74.063225 -141.16688 -34.359953 -13.897108 
	-34.359953 -13.897108 -74.063225 -141.16688 -38.843568 -15.642322 -3.1501503 68.181335 
	-74.063225 -141.16688 -34.359953 -13.897108 -3.1501503 68.181335 -38.843568 -15.642322 
3.72e+010 -39.701831 -22.640103 -3.155887 55.767745 -35.216744 -20.906843 -74.681365 -162.55026 
	-3.155887 55.767745 -39.701831 -22.640103 -74.681365 -162.55026 -35.216744 -20.906843 
	-35.216744 -20.906843 -74.681365 -162.55026 -39.701761 -22.640055 -3.1558858 55.767809 
	-74.681365 -162.55026 -35.216744 -20.906843 -3.1558858 55.767809 -39.701761 -22.640055 
3.73e+010 -41.003666 -28.099881 -3.1615505 43.352986 -36.517238 -26.377038 -75.749722 176.80568 
	-3.1615505 43.352986 -41.003666 -28.099881 -75.749722 176.80568 -36.517238 -26.377038 
	-36.517238 -26.377038 -75.749722 176.80568 -41.003594 -28.099845 -3.1615493 43.35305 
	-75.749722 176.80568 -36.517238 -26.377038 -3.1615493 43.35305 -41.003594 -28.099845 
3.74e+010 -42.806442 -30.54832 -3.1672265 30.936919 -38.318609 -28.833932 -77.366624 157.67951 
	-3.1672265 30.936919 -42.806442 -30.54832 -77.366624 157.67951 -38.318609 -28.833932 
	-38.318609 -28.833932 -77.366624 157.67951 -42.806368 -30.548309 -3.1672254 30.936983 
	-77.366624 157.67951 -38.318609 -28.833932 -3.1672254 30.936983 -42.806368 -30.548309 
3.75e+010 -45.061032 -26.946167 -3.172997 18.519956 -40.571487 -25.238142 -79.697257 141.85746 
	-3.172997 18.519956 -45.061032 -26.946167 -79.697257 141.85746 -40.571487 -25.238142 
	-40.571487 -25.238142 -79.697257 141.85746 -45.060976 -26.946032 -3.1729958 18.519774 
	-79.697257 141.85746 -40.571487 -25.238142 -3.1729958 18.519774 -45.060976 -26.946032 
3.76e+010 -47.079597 -12.564859 -3.1789256 6.101423 -42.587651 -10.863501 -82.872995 134.14098 
	-3.1789256 6.101423 -47.079597 -12.564859 -82.872995 134.14098 -42.587651 -10.863501 
	-42.587651 -10.863501 -82.872995 134.14098 -47.079528 -12.56454 -3.1789245 6.1012409 
	-82.872995 134.14098 -42.587651 -10.863501 -3.1789245 6.1012409 -47.079528 -12.56454 
3.77e+010 -47.049465 9.49519 -3.1850454 -6.3168 -42.554959 11.18354 -85.780204 145.57454 
	-3.1850454 -6.3168 -47.049465 9.49519 -85.780204 145.57454 -42.554959 11.18354 
	-42.554959 11.18354 -85.780204 145.57454 -47.049411 9.4951094 -3.1850443 -6.3167355 
	-85.780204 145.57454 -42.554959 11.18354 -3.1850443 -6.3167355 -47.049411 9.4951094 
3.78e+010 -45.015928 23.552499 -3.1913543 -18.734463 -40.519599 25.227294 -84.436292 165.58537 
	-3.1913543 -18.734463 -45.015928 23.552499 -84.436292 165.58537 -40.519599 25.227294 
	-40.519599 25.227294 -84.436292 165.58537 -45.015804 23.552651 -3.1913531 -18.734645 
	-84.436292 165.58537 -40.519599 25.227294 -3.1913531 -18.734645 -45.015804 23.552651 
3.79e+010 -42.782326 26.950677 -3.1978142 -31.151556 -38.284328 28.614417 -81.069622 164.86746 
	-3.1978142 -31.151556 -42.782326 26.950677 -81.069622 164.86746 -38.284328 28.614417 
	-38.284328 28.614417 -81.069622 164.86746 -42.782274 26.950704 -3.197813 -31.151492 
	-81.069622 164.86746 -38.284328 28.614417 -3.197813 -31.151492 -42.782274 26.950704 
3.8e+010 -41.00608 24.423958 -3.2043586 -43.567238 -36.506165 26.077182 -78.392157 151.75262 
	-3.2043586 -43.567238 -41.00608 24.423958 -78.392157 151.75262 -36.506165 26.077182 
	-36.506165 26.077182 -78.392157 151.75262 -41.005967 24.423925 -3.2043575 -43.567421 
	-78.392157 151.75262 -36.506165 26.077182 -3.2043575 -43.567421 -41.005967 24.423925 
3.81e+010 -39.729101 18.955594 -3.2109056 -55.981622 -35.227192 20.597644 -76.509356 133.82025 
	-3.2109056 -55.981622 -39.729101 18.955594 -76.509356 133.82025 -35.227192 20.597644 
	-35.227192 20.597644 -76.509356 133.82025 -39.728995 18.95553 -3.2109045 -55.981804 
	-76.509356 133.82025 -35.227192 20.597644 -3.2109045 -55.981804 -39.728995 18.95553 
3.82e+010 -38.893369 11.992439 -3.217372 -68.394814 -34.389485 13.622398 -75.239674 113.77719 
	-3.217372 -68.394814 -38.893369 11.992439 -75.239674 113.77719 -34.389485 13.622398 
	-34.389485 13.622398 -75.239674 113.77719 -38.893269 11.992357 -3.2173708 -68.394996 
	-75.239674 113.77719 -34.389485 13.622398 -3.2173708 -68.394996 -38.893269 11.992357 
3.83e+010 -38.449029 4.2916653 -3.2236895 -80.807387 -33.943308 5.9088793 -74.456764 92.711895 
	-3.2236895 -80.807387 -38.449029 4.2916653 -74.456764 92.711895 -33.943308 5.9088793 
	-33.943308 5.9088793 -74.456764 92.711895 -38.448967 4.2917253 -3.2236884 -80.807323 
	-74.456764 92.711895 -33.943308 5.9088793 -3.2236884 -80.807323 -38.448967 4.2917253 
3.84e+010 -38.368613 -3.6751457 -3.2298166 -93.219333 -33.861188 -2.0710285 -74.091463 71.208782 
	-3.2298166 -93.219333 -38.368613 -3.6751457 -74.091463 71.208782 -33.861188 -2.0710285 
	-33.861188 -2.0710285 -74.091463 71.208782 -38.36855 -3.6750875 -3.2298156 -93.219269 
	-74.091463 71.208782 -33.861188 -2.0710285 -3.2298156 -93.219269 -38.36855 -3.6750875 
3.85e+010 -38.646406 -11.530539 -3.235747 -105.63145 -34.137458 -9.9392615 -74.110278 49.535304 
	-3.235747 -105.63145 -38.646406 -11.530539 -74.110278 49.535304 -34.137458 -9.9392615 
	-34.137458 -9.9392615 -74.110278 49.535304 -38.646341 -11.530484 -3.235746 -105.63139 
	-74.110278 49.535304 -34.137458 -9.9392615 -3.235746 -105.63139 -38.646341 -11.530484 
3.86e+010 -39.297941 -18.863204 -3.2415096 -118.04401 -34.78761 -17.283983 -74.517613 28.05784 
	-3.2415096 -118.04401 -39.297941 -18.863204 -74.517613 28.05784 -34.78761 -17.283983 
	-34.78761 -17.283983 -74.517613 28.05784 -39.297863 -18.863286 -3.2415085 -118.04419 
	-74.517613 28.05784 -34.78761 -17.283983 -3.2415085 -118.04419 -39.297863 -18.863286 
3.87e+010 -40.360204 -25.080073 -3.2471638 -130.4579 -35.848617 -23.511487 -75.338488 7.0533737 
	-3.2471638 -130.4579 -40.360204 -25.080073 -75.338488 7.0533737 -35.848617 -23.511487 
	-35.848617 -23.511487 -75.338488 7.0533737 -40.360134 -25.080134 -3.2471626 -130.45809 
	-75.338488 7.0533737 -35.848617 -23.511487 -3.2471626 -130.45809 -40.360134 -25.080134 
3.88e+010 -41.886477 -29.131869 -3.2527879 -142.87307 -37.373634 -27.572134 -76.648904 -12.858897 
	-3.2527879 -142.87307 -41.886477 -29.131869 -76.648904 -12.858897 -37.373634 -27.572134 
	-37.373634 -27.572134 -76.648904 -12.858897 -41.886415 -29.131889 -3.2527868 -142.87325 
	-76.648904 -12.858897 -37.373634 -27.572134 -3.2527868 -142.87325 -41.886415 -29.131889 
3.89e+010 -43.89861 -28.926901 -3.2584659 -155.28921 -39.384315 -27.373966 -78.569347 -30.558874 
	-3.2584659 -155.28921 -43.89861 -28.926901 -78.569347 -30.558874 -39.384315 -27.373966 
	-39.384315 -27.373966 -78.569347 -30.558874 -43.898555 -28.926837 -3.2584648 -155.2894 
	-78.569347 -30.558874 -39.384315 -27.373966 -3.2584648 -155.2894 -43.898555 -28.926837 
3.9e+010 -46.12489 -20.51138 -3.2642703 -167.70656 -41.60869 -18.963838 -81.26372 -43.236532 
	-3.2642703 -167.70656 -46.12489 -20.51138 -81.26372 -43.236532 -41.60869 -18.963838 
	-41.60869 -18.963838 -81.26372 -43.236532 -46.124876 -20.510987 -3.2642692 -167.7069 
	-81.26372 -43.236532 -41.60869 -18.963838 -3.2642692 -167.7069 -46.124876 -20.510987 
3.91e+010 -47.277596 -1.3190489 -3.2702499 179.87583 -42.758812 0.21958592 -84.570611 -43.209507 
	-3.2702499 179.87583 -47.277596 -1.3190489 -84.570611 -43.209507 -42.758812 0.21958592 
	-42.758812 0.21958592 -84.570611 -43.209507 -47.277527 -1.3184282 -3.2702488 179.87549 
	-84.570611 -43.209507 -42.758812 0.21958592 -3.2702488 179.87549 -47.277527 -1.3184282 
3.92e+010 -46.07586 17.630391 -3.2764201 167.458 -41.555016 19.155161 -85.711346 -23.85894 
	-3.2764201 167.458 -46.07586 17.630391 -85.711346 -23.85894 -41.555016 19.155161 
	-41.555016 19.155161 -85.711346 -23.85894 -46.075736 17.630791 -3.2764191 167.45766 
	-85.711346 -23.85894 -41.555016 19.155161 -3.2764191 167.45766 -46.075736 17.630791 
3.93e+010 -43.856562 25.742566 -3.2827614 155.04043 -39.334138 27.255544 -82.881138 -13.708817 
	-3.2827614 155.04043 -43.856562 25.742566 -82.881138 -13.708817 -39.334138 27.255544 
	-39.334138 27.255544 -82.881138 -13.708817 -43.856442 25.742645 -3.2827603 155.04025 
	-82.881138 -13.708817 -39.334138 27.255544 -3.2827603 155.04025 -43.856442 25.742645 
3.94e+010 -41.87022 25.799017 -3.2892206 142.62441 -37.346094 27.301921 -79.827059 -21.684101 
	-3.2892206 142.62441 -41.87022 25.799017 -79.827059 -21.684101 -37.346094 27.301921 
	-37.346094 27.301921 -79.827059 -21.684101 -41.870107 25.79901 -3.2892194 142.62422 
	-79.827059 -21.684101 -37.346094 27.301921 -3.2892194 142.62422 -41.870107 25.79901 
3.95e+010 -40.370537 21.699181 -3.2957239 130.20937 -35.844601 23.191868 -77.582341 -37.492728 
	-3.2957239 130.20937 -40.370537 21.699181 -77.582341 -37.492728 -35.844601 23.191868 
	-35.844601 23.191868 -77.582341 -37.492728 -40.370483 21.699231 -3.2957227 130.20944 
	-77.582341 -37.492728 -35.844601 23.191868 -3.2957227 130.20944 -40.370483 21.699231 
3.96e+010 -39.332651 15.491635 -3.3021882 117.79583 -34.804824 16.97324 -76.026827 -56.508692 
	-3.3021882 117.79583 -39.332651 15.491635 -76.026827 -56.508692 -34.804824 16.97324 
	-34.804824 16.97324 -76.026827 -56.508692 -39.332595 15.49169 -3.3021871 117.79589 
	-76.026827 -56.508692 -34.804824 16.97324 -3.3021871 117.79589 -39.332595 15.49169 
3.97e+010 -38.703124 8.2074346 -3.308538 105.38332 -34.173471 9.6771154 -75.009316 -77.021578 
	-3.308538 105.38332 -38.703124 8.2074346 -75.009316 -77.021578 -34.173471 9.6771154 
	-34.173471 9.6771154 -75.009316 -77.021578 -38.703066 8.2074921 -3.3085368 105.38338 
	-75.009316 -77.021578 -34.173471 9.6771154 -3.3085368 105.38338 -38.703066 8.2074921 
3.98e+010 -38.445063 0.43469443 -3.3147179 92.971436 -33.913721 1.891937 -74.43615 -98.257798 
	-3.3147179 92.971436 -38.445063 0.43469443 -74.43615 -98.257798 -33.913721 1.891937 
	-33.913721 1.891937 -74.43615 -98.257798 -38.445002 0.4347518 -3.3147168 92.9715 
	-74.43615 -98.257798 -33.913721 1.891937 -3.3147168 92.9715 -38.445002 0.4347518 
3.99e+010 -38.54273 -7.4132361 -3.3207043 80.559904 -34.00985 -5.9685183 -74.258101 -119.80478 
	-3.3207043 80.559904 -38.54273 -7.4132361 -74.258101 -119.80478 -34.00985 -5.9685183 
	-34.00985 -5.9685183 -74.258101 -119.80478 -38.542647 -7.4133301 -3.3207031 80.559721 
	-74.258101 -119.80478 -34.00985 -5.9685183 -3.3207031 80.559721 -38.542647 -7.4133301 
4e+010 -39.000784 -14.951257 -3.3265081 68.147693 -34.466569 -13.518473 -74.461981 -141.31992 
	-3.3265081 68.147693 -39.000784 -14.951257 -74.461981 -141.31992 -34.466569 -13.518473 
	-34.466569 -13.518473 -74.461981 -141.31992 -39.000731 -14.95144 -3.3265069 68.147356 
	-74.461981 -141.31992 -34.466569 -13.518473 -3.3265069 68.147356 -39.000731 -14.95144 
4.01e+010 -39.84431 -21.6935 -3.3321735 55.734595 -35.308891 -20.271504 -75.057863 -162.5456 
	-3.3321735 55.734595 -39.84431 -21.6935 -75.057863 -162.5456 -35.308891 -20.271504 
	-35.308891 -20.271504 -75.057863 -162.5456 -39.844269 -21.693654 -3.3321723 55.734257 
	-75.057863 -162.5456 -35.308891 -20.271504 -3.3321723 55.734257 -39.844269 -21.693654 
4.02e+010 -41.117068 -26.86142 -3.3377695 43.320317 -36.580479 -25.448596 -76.099673 177.0149 
	-3.3377695 43.320317 -41.117068 -26.86142 -76.099673 177.0149 -36.580479 -25.448596 
	-36.580479 -25.448596 -76.099673 177.0149 -41.117036 -26.861443 -3.3377683 43.320226 
	-76.099673 177.0149 -36.580479 -25.448596 -3.3377683 43.320226 -41.117036 -26.861443 
4.03e+010 -42.861806 -28.993772 -3.3433776 30.905032 -38.323977 -27.588276 -77.670491 158.08828 
	-3.3433776 30.905032 -42.861806 -28.993772 -77.670491 158.08828 -38.323977 -27.588276 
	-38.323977 -27.588276 -77.670491 158.08828 -42.861791 -28.993758 -3.3433764 30.904695 
	-77.670491 158.08828 -38.323977 -27.588276 -3.3433764 30.904695 -42.861791 -28.993758 
4.04e+010 -45.000945 -25.210011 -3.349076 18.488406 -40.46155 -23.810006 -79.922712 142.46688 
	-3.349076 18.488406 -45.000945 -25.210011 -79.922712 142.46688 -40.46155 -23.810006 
	-40.46155 -23.810006 -79.922712 142.46688 -45.00092 -25.209948 -3.3490749 18.488315 
	-79.922712 142.46688 -40.46155 -23.810006 -3.3490749 18.488315 -45.00092 -25.209948 
4.05e+010 -46.85293 -11.44143 -3.3549255 6.0711366 -42.311309 -10.04741 -82.940873 134.64042 
	-3.3549255 6.0711366 -46.85293 -11.44143 -82.940873 134.64042 -42.311309 -10.04741 
	-42.311309 -10.04741 -82.940873 134.64042 -46.852864 -11.441135 -3.3549243 6.0709544 
	-82.940873 134.64042 -42.311309 -10.04741 -3.3549243 6.0709544 -46.852864 -11.441135 
4.06e+010 -46.819855 9.0569772 -3.3609584 -6.3462176 -42.275881 10.439326 -85.687933 144.36303 
	-3.3609584 -6.3462176 -46.819855 9.0569772 -85.687933 144.36303 -42.275881 10.439326 
	-42.275881 10.439326 -85.687933 144.36303 -46.819754 9.057279 -3.3609573 -6.3463999 
	-85.687933 144.36303 -42.275881 10.439326 -3.3609573 -6.3463999 -46.819754 9.057279 
4.07e+010 -44.947451 22.478856 -3.3671727 -18.763274 -40.401842 23.848564 -84.61592 162.83648 
	-3.3671727 -18.763274 -44.947451 22.478856 -84.61592 162.83648 -40.401842 23.848564 
	-40.401842 23.848564 -84.61592 162.83648 -44.947335 22.479001 -3.3671716 -18.763456 
	-84.61592 162.83648 -40.401842 23.848564 -3.3671716 -18.763456 -44.947335 22.479001 
4.08e+010 -42.827844 26.026087 -3.3735323 -31.180199 -38.280743 27.385632 -81.446764 162.64494 
	-3.3735323 -31.180199 -42.827844 26.026087 -81.446764 162.64494 -38.280743 27.385632 
	-38.280743 27.385632 -81.446764 162.64494 -42.827731 26.026116 -3.3735311 -31.180382 
	-81.446764 162.64494 -38.280743 27.385632 -3.3735311 -31.180382 -42.827731 26.026116 
4.09e+010 -41.110341 23.793343 -3.3799731 -43.595362 -36.561552 25.143302 -78.819565 150.18859 
	-3.3799731 -43.595362 -41.110341 23.793343 -78.819565 150.18859 -36.561552 25.143302 
	-36.561552 25.143302 -78.819565 150.18859 -41.110234 23.79331 -3.379972 -43.595544 
	-78.819565 150.18859 -36.561552 25.143302 -3.379972 -43.595544 -41.110234 23.79331 
4.1e+010 -39.863598 18.603647 -3.386417 -56.009281 -35.313021 19.943399 -76.945768 132.68439 
	-3.386417 -56.009281 -39.863598 18.603647 -76.945768 132.68439 -35.313021 19.943399 
	-35.313021 19.943399 -76.945768 132.68439 -39.863501 18.603502 -3.3864157 -56.009619 
	-76.945768 132.68439 -35.313021 19.943399 -3.3864157 -56.009619 -39.863501 18.603502 
4.11e+010 -39.043659 11.887944 -3.3927841 -68.422059 -34.491318 13.216659 -75.672739 112.93196 
	-3.3927841 -68.422059 -39.043659 11.887944 -75.672739 112.93196 -34.491318 13.216659 
	-34.491318 13.216659 -75.672739 112.93196 -39.043573 11.887767 -3.3927829 -68.422396 
	-75.672739 112.93196 -34.491318 13.216659 -3.3927829 -68.422396 -39.043573 11.887767 
4.12e+010 -38.60685 4.4133101 -3.399009 -80.834005 -34.05285 5.7303866 -74.881308 92.086325 
	-3.399009 -80.834005 -38.60685 4.4133101 -74.881308 92.086325 -34.05285 5.7303866 
	-34.05285 5.7303866 -74.881308 92.086325 -38.606806 4.4132668 -3.399008 -80.834096 
	-74.881308 92.086325 -34.05285 5.7303866 -3.399008 -80.834096 -38.606806 4.4132668 
4.13e+010 -38.528145 -3.3363079 -3.4050521 -93.245493 -33.972594 -2.031215 -74.505213 70.79027 
	-3.4050521 -93.245493 -38.528145 -3.3363079 -74.505213 70.79027 -33.972594 -2.031215 
	-33.972594 -2.031215 -74.505213 70.79027 -38.528062 -3.3364028 -3.4050511 -93.245675 
	-74.505213 70.79027 -33.972594 -2.031215 -3.4050511 -93.245675 -38.528062 -3.3364028 
4.14e+010 -38.802222 -10.970973 -3.4109069 -105.65723 -34.245336 -9.677573 -74.511524 49.310455 
	-3.4109069 -105.65723 -38.802222 -10.970973 -74.511524 49.310455 -34.245336 -9.677573 
	-34.245336 -9.677573 -74.511524 49.310455 -38.802144 -10.971066 -3.4109057 -105.65742 
	-74.511524 49.310455 -34.245336 -9.677573 -3.4109057 -105.65742 -38.802144 -10.971066 
4.15e+010 -39.443322 -18.066763 -3.4166008 -118.06964 -34.885252 -16.784226 -74.900095 27.987314 
	-3.4166008 -118.06964 -39.443322 -18.066763 -74.900095 27.987314 -34.885252 -16.784226 
	-34.885252 -16.784226 -74.900095 27.987314 -39.44325 -18.066846 -3.4165996 -118.06982 
	-74.900095 27.987314 -34.885252 -16.784226 -3.4165996 -118.06982 -39.44325 -18.066846 
4.16e+010 -40.484496 -24.017877 -3.4221906 -130.48283 -35.925308 -22.74487 -75.699291 7.175604 
	-3.4221906 -130.48283 -40.484496 -24.017877 -75.699291 7.175604 -35.925308 -22.74487 
	-35.925308 -22.74487 -75.699291 7.175604 -40.484431 -24.017937 -3.4221896 -130.48301 
	-75.699291 7.175604 -35.925308 -22.74487 -3.4221896 -130.48301 -40.484431 -24.017937 
4.17e+010 -41.969631 -27.772689 -3.4277519 -142.89748 -37.409341 -26.50749 -76.974321 -12.549243 
	-3.4277519 -142.89748 -41.969631 -27.772689 -76.974321 -12.549243 -37.409341 -26.50749 
	-37.409341 -26.50749 -76.974321 -12.549243 -41.969573 -27.772708 -3.4277509 -142.89766 
	-76.974321 -12.549243 -37.409341 -26.50749 -3.4277509 -142.89766 -41.969573 -27.772708 
4.18e+010 -43.900336 -27.301085 -3.4333644 -155.31307 -39.33874 -26.041761 -78.835951 -30.053214 
	-3.4333644 -155.31307 -43.900336 -27.301085 -78.835951 -30.053214 -39.33874 -26.041761 
	-39.33874 -26.041761 -78.835951 -30.053214 -43.900284 -27.301023 -3.4333631 -155.31325 
	-78.835951 -30.053214 -39.33874 -26.041761 -3.4333631 -155.31325 -43.900284 -27.301023 
4.19e+010 -45.981792 -19.003606 -3.4390978 -167.72982 -41.41843 -17.749101 -81.425444 -42.606321 
	-3.4390978 -167.72982 -45.981792 -19.003606 -81.425444 -42.606321 -41.41843 -17.749101 
	-41.41843 -17.749101 -81.425444 -42.606321 -45.981739 -19.003398 -3.4390965 -167.73 
	-81.425444 -42.606321 -41.41843 -17.749101 -3.4390965 -167.73 -45.981739 -19.003398 
4.2e+010 -47.02472 -1.0053226 -3.444999 179.85319 -42.459012 0.24097385 -84.532785 -43.309793 
	-3.444999 179.85319 -47.02472 -1.0053226 -84.532785 -43.309793 -42.459012 0.24097385 
	-42.459012 0.24097385 -84.532785 -43.309793 -47.024639 -1.0050033 -3.4449978 179.85301 
	-84.532785 -43.309793 -42.459012 0.24097385 -3.4449978 179.85301 -47.024639 -1.0050033 
4.21e+010 -45.929619 16.751268 -3.451083 167.43622 -41.362022 17.98493 -85.714708 -26.232478 
	-3.451083 167.43622 -45.929619 16.751268 -85.714708 -26.232478 -41.362022 17.98493 
	-41.362022 17.98493 -85.714708 -26.232478 -45.929511 16.751487 -3.451082 167.43604 
	-85.714708 -26.232478 -41.362022 17.98493 -3.451082 167.43604 -45.929511 16.751487 
4.22e+010 -43.852039 24.728173 -3.4573309 155.0198 -39.283013 25.951003 -83.176975 -16.261563 
	-3.4573309 155.0198 -43.852039 24.728173 -83.176975 -16.261563 -39.283013 25.951003 
	-39.283013 25.951003 -83.176975 -16.261563 -43.851927 24.728251 -3.4573297 155.01961 
	-83.176975 -16.261563 -39.283013 25.951003 -3.4573297 155.01961 -43.851927 24.728251 
4.23e+010 -41.946355 25.031811 -3.4636927 142.60407 -37.375851 26.245403 -80.229958 -23.558095 
	-3.4636927 142.60407 -41.946355 25.031811 -80.229958 -23.558095 -37.375851 26.245403 
	-37.375851 26.245403 -80.229958 -23.558095 -41.946307 25.031845 -3.4636914 142.60414 
	-80.229958 -23.558095 -37.375851 26.245403 -3.4636914 142.60414 -41.946307 25.031845 
4.24e+010 -40.488223 21.215863 -3.4700972 130.18977 -35.916056 22.420106 -78.009524 -38.832446 
	-3.4700972 130.18977 -40.488223 21.215863 -78.009524 -38.832446 -35.916056 22.420106 
	-35.916056 22.420106 -78.009524 -38.832446 -40.488172 21.215909 -3.4700958 130.18984 
	-78.009524 -38.832446 -35.916056 22.420106 -3.4700958 130.18984 -40.488172 21.215909 
4.25e+010 -39.471991 15.265374 -3.4764651 117.77612 -34.898119 16.459494 -76.455458 -57.482931 
	-3.4764651 117.77612 -39.471991 15.265374 -76.455458 -57.482931 -34.898119 16.459494 
	-34.898119 16.459494 -76.455458 -57.482931 -39.471939 15.265426 -3.4764639 117.77618 
	-76.455458 -57.482931 -34.898119 16.459494 -3.4764639 117.77618 -39.471939 15.265426 
4.26e+010 -38.853515 8.2128971 -3.4827235 105.36425 -34.277974 9.3960316 -75.432126 -77.731299 
	-3.4827235 105.36425 -38.853515 8.2128971 -75.432126 -77.731299 -34.277974 9.3960316 
	-34.277974 9.3960316 -75.432126 -77.731299 -38.853427 8.2128077 -3.4827223 105.36407 
	-75.432126 -77.731299 -34.277974 9.3960316 -3.4827223 105.36407 -38.853427 8.2128077 
4.27e+010 -38.599698 0.65715584 -3.4888198 92.95274 -34.022651 1.8288891 -74.849336 -98.767115 
	-3.4888198 92.95274 -38.599698 0.65715584 -74.849336 -98.767115 -34.022651 1.8288891 
	-34.022651 1.8288891 -74.849336 -98.767115 -38.599615 0.65706051 -3.4888186 92.952557 
	-74.849336 -98.767115 -34.022651 1.8288891 -3.4888186 92.952557 -38.599615 0.65706051 
4.28e+010 -38.696153 -6.9766098 -3.4947304 80.541333 -34.117766 -5.8162693 -74.659471 -120.12497 
	-3.4947304 80.541333 -38.696153 -6.9766098 -74.659471 -120.12497 -34.117766 -5.8162693 
	-34.117766 -5.8162693 -74.659471 -120.12497 -38.696075 -6.9767043 -3.4947294 80.541151 
	-74.659471 -120.12497 -34.117766 -5.8162693 -3.4947294 80.541151 -38.696075 -6.9767043 
4.29e+010 -39.147165 -14.291124 -3.5004663 68.129516 -34.5676 -13.141622 -74.847023 -141.48238 
	-3.5004663 68.129516 -39.147165 -14.291124 -74.847023 -141.48238 -34.5676 -13.141622 
	-34.5676 -13.141622 -74.847023 -141.48238 -39.147093 -14.291212 -3.5004652 68.129333 
	-74.847023 -141.48238 -34.5676 -13.141622 -3.5004652 68.129333 -39.147093 -14.291212 
4.3e+010 -39.975351 -20.788717 -3.5060696 55.717095 -35.394704 -19.648971 -75.42438 -162.52146 
	-3.5060696 55.717095 -39.975351 -20.788717 -75.42438 -162.52146 -35.394704 -19.648971 
	-35.394704 -19.648971 -75.42438 -162.52146 -39.975285 -20.788791 -3.5060682 55.716913 
	-75.42438 -162.52146 -35.394704 -19.648971 -3.5060682 55.716913 -39.975285 -20.788791 
4.31e+010 -41.218393 -25.682994 -3.5116061 43.303299 -36.636731 -24.551485 -76.435656 177.20446 
	-3.5116061 43.303299 -41.218393 -25.682994 -76.435656 177.20446 -36.636731 -24.551485 
	-36.636731 -24.551485 -76.435656 177.20446 -41.218334 -25.683039 -3.5116049 43.303117 
	-76.435656 177.20446 -36.636731 -24.551485 -3.5116049 43.303117 -41.218334 -25.683039 
4.32e+010 -42.905532 -27.532634 -3.517154 30.888549 -38.322743 -26.407523 -77.967991 158.50116 
	-3.517154 30.888549 -42.905532 -27.532634 -77.967991 158.50116 -38.322743 -26.407523 
	-38.322743 -26.407523 -77.967991 158.50116 -42.905479 -27.532618 -3.5171528 30.888367 
	-77.967991 158.50116 -38.322743 -26.407523 -3.5171528 30.888367 -42.905479 -27.532618 
4.33e+010 -44.935315 -23.621149 -3.5227882 18.472501 -40.351111 -22.500764 -80.133675 143.00583 
	-3.5227882 18.472501 -44.935315 -23.621149 -80.133675 143.00583 -40.351111 -22.500764 
	-40.351111 -22.500764 -80.133675 143.00583 -44.935267 -23.621022 -3.522787 18.472319 
	-80.133675 143.00583 -40.351111 -22.500764 -3.522787 18.472319 -44.935267 -23.621022 
4.34e+010 -46.640689 -10.457814 -3.528567 6.0559945 -42.054437 -9.3429223 -83.012893 135.08189 
	-3.528567 6.0559945 -46.640689 -10.457814 -83.012893 135.08189 -42.054437 -9.3429223 
	-42.054437 -9.3429223 -83.012893 135.08189 -46.640627 -10.45754 -3.5285658 6.0558122 
	-83.012893 135.08189 -42.054437 -9.3429223 -3.5285658 6.0558122 -46.640627 -10.45754 
4.35e+010 -46.607985 8.6495725 -3.534522 -6.3607454 -42.019584 9.753776 -85.611287 143.22829 
	-3.534522 -6.3607454 -46.607985 8.6495725 -85.611287 143.22829 -42.019584 9.753776 
	-42.019584 9.753776 -85.611287 143.22829 -46.607891 8.6498526 -3.5345208 -6.3609276 
	-85.611287 143.22829 -42.019584 9.753776 -3.5345208 -6.3609276 -46.607891 8.6498526 
4.36e+010 -44.879711 21.473924 -3.5406506 -18.777202 -40.289815 22.566455 -84.776862 160.09055 
	-3.5406506 -18.777202 -44.879711 21.473924 -84.776862 160.09055 -40.289815 22.566455 
	-40.289815 22.566455 -84.776862 160.09055 -44.879603 21.474063 -3.5406495 -18.777384 
	-84.776862 160.09055 -40.289815 22.566455 -3.5406495 -18.777384 -44.879603 21.474063 
4.37e+010 -42.867417 25.138802 -3.5469189 -31.193161 -38.276172 26.221918 -81.803083 160.45119 
	-3.5469189 -31.193161 -42.867417 25.138802 -81.803083 160.45119 -38.276172 26.221918 
	-38.276172 26.221918 -81.803083 160.45119 -42.867311 25.138831 -3.5469177 -31.193343 
	-81.803083 160.45119 -38.276172 26.221918 -3.5469177 -31.193343 -42.867311 25.138831 
4.38e+010 -41.206887 23.177799 -3.5532659 -43.607806 -36.614124 24.25211 -79.231307 148.60925 
	-3.5532659 -43.607806 -41.206887 23.177799 -79.231307 148.60925 -36.614124 24.25211 
	-36.614124 24.25211 -79.231307 148.60925 -41.206786 23.177766 -3.5532647 -43.607989 
	-79.231307 148.60925 -36.614124 24.25211 -3.5532647 -43.607989 -41.206786 23.177766 
4.39e+010 -39.989821 18.253964 -3.5596162 -56.02126 -35.395452 19.318959 -77.368017 131.55051 
	-3.5596162 -56.02126 -39.989821 18.253964 -77.368017 131.55051 -35.395452 19.318959 
	-35.395452 19.318959 -77.368017 131.55051 -39.989727 18.253898 -3.5596149 -56.021442 
	-77.368017 131.55051 -35.395452 19.318959 -3.5596149 -56.021442 -39.989727 18.253898 
4.4e+010 -39.185331 11.777184 -3.5658937 -68.434175 -34.58936 12.832062 -76.092573 112.08617 
	-3.5658937 -68.434175 -39.185331 11.777184 -76.092573 112.08617 -34.58936 12.832062 
	-34.58936 12.832062 -76.092573 112.08617 -39.185242 11.7771 -3.5658927 -68.434358 
	-76.092573 112.08617 -34.58936 12.832062 -3.5658927 -68.434358 -39.185242 11.7771 
4.41e+010 -38.755714 4.5222177 -3.5720354 -80.845735 -34.158246 5.5663416 -75.293739 91.49777 
	-3.5720354 -80.845735 -38.755714 4.5222177 -75.293739 91.49777 -34.158246 5.5663416 
	-34.158246 5.5663416 -75.293739 91.49777 -38.755631 4.5221257 -3.5720342 -80.845918 
	-75.293739 91.49777 -34.158246 5.5663416 -3.5720342 -80.845918 -38.755631 4.5221257 
4.42e+010 -38.67829 -3.0160126 -3.5780029 -93.256694 -34.079447 -1.9828733 -74.90653 70.373973 
	-3.5780029 -93.256694 -38.67829 -3.0160126 -74.90653 70.373973 -34.079447 -1.9828733 
	-34.079447 -1.9828733 -74.90653 70.373973 -38.678212 -3.0161083 -3.5780015 -93.256876 
	-74.90653 70.373973 -34.079447 -1.9828733 -3.5780015 -93.256876 -38.678212 -3.0161083 
4.43e+010 -38.948178 -10.436514 -3.5837899 -105.66805 -34.348149 -9.4140858 -74.898697 49.061628 
	-3.5837899 -105.66805 -38.948178 -10.436514 -74.898697 49.061628 -34.348149 -9.4140858 
	-34.348149 -9.4140858 -74.898697 49.061628 -38.948105 -10.436607 -3.5837885 -105.66823 
	-74.898697 49.061628 -34.348149 -9.4140858 -3.5837885 -105.66823 -38.948105 -10.436607 
4.44e+010 -39.578268 -17.304065 -3.5894224 -118.08004 -34.977195 -16.291528 -75.26905 27.900962 
	-3.5894224 -118.08004 -39.578268 -17.304065 -75.26905 27.900962 -34.977195 -16.291528 
	-34.977195 -16.291528 -75.26905 27.900962 -39.578201 -17.304146 -3.5894214 -118.08022 
	-75.26905 27.900962 -34.977195 -16.291528 -3.5894214 -118.08022 -39.578201 -17.304146 
4.45e+010 -40.597711 -23.003127 -3.5949554 -130.49277 -35.995651 -21.99918 -76.046696 7.2806652 
	-3.5949554 -130.49277 -40.597711 -23.003127 -76.046696 7.2806652 -35.995651 -21.99918 
	-35.995651 -21.99918 -76.046696 7.2806652 -40.597651 -23.003188 -3.5949542 -130.49296 
	-76.046696 7.2806652 -35.995651 -21.99918 -3.5949542 -130.49296 -40.597651 -23.003188 
4.46e+010 -42.041488 -26.484649 -3.6004605 -142.90692 -37.438448 -25.487626 -77.286225 -12.265923 
	-3.6004605 -142.90692 -42.041488 -26.484649 -77.286225 -12.265923 -37.438448 -25.487626 
	-37.438448 -25.487626 -77.286225 -12.265923 -42.041434 -26.484669 -3.6004591 -142.9071 
	-77.286225 -12.265923 -37.438448 -25.487626 -3.6004591 -142.9071 -42.041434 -26.484669 
4.47e+010 -43.893175 -25.788312 -3.6060144 -155.32195 -39.288943 -24.796398 -79.089685 -29.591162 
	-3.6060144 -155.32195 -43.893175 -25.788312 -79.089685 -29.591162 -39.288943 -24.796398 
	-39.288943 -24.796398 -79.089685 -29.591162 -43.893127 -25.788251 -3.6060132 -155.32213 
	-79.089685 -29.591162 -39.288943 -24.796398 -3.6060132 -155.32213 -43.893127 -25.788251 
4.48e+010 -45.842084 -17.648812 -3.6116842 -167.73811 -41.236213 -16.661176 -81.573337 -42.075504 
	-3.6116842 -167.73811 -45.842084 -17.648812 -81.573337 -42.075504 -41.236213 -16.661176 
	-41.236213 -16.661176 -81.573337 -42.075504 -45.842033 -17.648614 -3.611683 -167.73829 
	-81.573337 -42.075504 -41.236213 -16.661176 -3.611683 -167.73829 -45.842033 -17.648614 
4.49e+010 -46.791954 -0.74392849 -3.6175147 179.84551 -42.183927 0.23612648 -84.515354 -43.382596 
	-3.6175147 179.84551 -46.791954 -0.74392849 -84.515354 -43.382596 -42.183927 0.23612648 
	-42.183927 0.23612648 -84.515354 -43.382596 -46.791878 -0.74363263 -3.6175136 179.84533 
	-84.515354 -43.382596 -42.183927 0.23612648 -3.6175136 179.84533 -46.791878 -0.74363263 
4.5e+010 -45.791567 15.937884 -3.6235209 167.42915 -41.181801 16.906332 -85.717767 -28.412238 
	-3.6235209 167.42915 -45.791567 15.937884 -85.717767 -28.412238 -41.181801 16.906332 
	-41.181801 16.906332 -85.717767 -28.412238 -45.791466 15.938093 -3.6235196 167.42897 
	-85.717767 -28.412238 -41.181801 16.906332 -3.6235196 167.42897 -45.791466 15.938093 
4.51e+010 -43.844058 23.765555 -3.6296844 155.01306 -39.233012 24.723922 -83.452574 -18.852265 
	-3.6296844 155.01306 -43.844058 23.765555 -83.452574 -18.852265 -39.233012 24.723922 
	-39.233012 24.723922 -83.452574 -18.852265 -43.843952 23.76563 -3.6296832 155.01287 
	-83.452574 -18.852265 -39.233012 24.723922 -3.6296832 155.01287 -43.843952 23.76563 
4.52e+010 -42.015778 24.289124 -3.6359573 142.59812 -37.403361 25.238922 -80.615941 -25.453316 
	-3.6359573 142.59812 -42.015778 24.289124 -80.615941 -25.453316 -37.403361 25.238922 
	-37.403361 25.238922 -80.615941 -25.453316 -42.015677 24.289116 -3.6359563 142.59794 
	-80.615941 -25.453316 -37.403361 25.238922 -3.6359563 142.59794 -42.015677 24.289116 
4.53e+010 -40.598238 20.740611 -3.6422719 130.18431 -35.984322 21.681789 -78.422131 -40.172995 
	-3.6422719 130.18431 -40.598238 20.740611 -78.422131 -40.172995 -35.984322 21.681789 
	-35.984322 21.681789 -78.422131 -40.172995 -40.598143 20.740561 -3.6422707 130.18413 
	-78.422131 -40.172995 -35.984322 21.681789 -3.6422707 130.18413 -40.598143 20.740561 
4.54e+010 -39.603377 15.037919 -3.6485519 117.77165 -34.987923 15.969773 -76.871567 -58.498753 
	-3.6485519 117.77165 -39.603377 15.037919 -76.871567 -58.498753 -34.987923 15.969773 
	-34.987923 15.969773 -76.871567 -58.498753 -39.603288 15.037843 -3.6485506 117.77147 
	-76.871567 -58.498753 -34.987923 15.969773 -3.6485506 117.77147 -39.603288 15.037843 
4.55e+010 -38.995584 8.2100666 -3.6547275 105.35995 -34.378649 9.1318674 -75.842315 -78.473986 
	-3.6547275 105.35995 -38.995584 8.2100666 -75.842315 -78.473986 -34.378649 9.1318674 
	-34.378649 9.1318674 -75.842315 -78.473986 -38.9955 8.2099777 -3.6547262 105.35976 
	-75.842315 -78.473986 -34.378649 9.1318674 -3.6547262 105.35976 -38.9955 8.2099777 
4.56e+010 -38.745685 0.86554537 -3.6607477 92.948816 -34.127392 1.7768464 -75.249518 -99.307079 
	-3.6607477 92.948816 -38.745685 0.86554537 -75.249518 -99.307079 -34.127392 1.7768464 
	-34.127392 1.7768464 -75.249518 -99.307079 -38.745607 0.86545043 -3.6607467 92.948634 
	-75.249518 -99.307079 -34.127392 1.7768464 -3.6607467 92.948634 -38.745607 0.86545043 
4.57e+010 -38.840559 -6.5601679 -3.6665909 80.537232 -34.221059 -5.6593407 -75.04743 -120.47395 
	-3.6665909 80.537232 -38.840559 -6.5601679 -75.04743 -120.47395 -34.221059 -5.6593407 
	-34.221059 -5.6593407 -75.04743 -120.47395 -38.840486 -6.5602631 -3.6665895 80.537049 
	-75.04743 -120.47395 -34.221059 -5.6593407 -3.6665895 80.537049 -38.840486 -6.5602631 
4.58e+010 -39.284028 -13.658464 -3.6722659 68.125813 -34.66348 -12.767563 -75.218612 -141.66788 
	-3.6722659 68.125813 -39.284028 -13.658464 -75.218612 -141.66788 -34.66348 -12.767563 
	-34.66348 -12.767563 -75.218612 -141.66788 -39.283961 -13.658553 -3.6722646 68.125631 
	-75.218612 -141.66788 -34.66348 -12.767563 -3.6722646 68.125631 -39.283961 -13.658553 
4.59e+010 -40.096291 -19.92202 -3.6778136 55.713829 -35.474783 -19.039981 -75.777306 -162.51984 
	-3.6778136 55.713829 -40.096291 -19.92202 -75.777306 -162.51984 -35.474783 -19.039981 
	-35.474783 -19.039981 -75.777306 -162.51984 -40.09623 -19.922093 -3.6778122 55.713646 
	-75.777306 -162.51984 -35.474783 -19.039981 -3.6778122 55.713646 -40.09623 -19.922093 
4.6e+010 -41.309178 -24.559875 -3.683297 43.300516 -36.686768 -23.685224 -76.759237 177.37518 
	-3.683297 43.300516 -41.309178 -24.559875 -76.759237 177.37518 -36.686768 -23.685224 
	-36.686768 -23.685224 -76.759237 177.37518 -41.309123 -24.559917 -3.6832958 43.300333 
	-76.759237 177.37518 -36.686768 -23.685224 -3.6832958 43.300333 -41.309123 -24.559917 
4.61e+010 -42.93946 -26.157247 -3.6887911 30.886051 -38.316053 -25.28823 -78.242062 158.82567 
	-3.6887911 30.886051 -42.93946 -26.157247 -78.242062 158.82567 -38.316053 -25.28823 
	-38.316053 -25.28823 -78.242062 158.82567 -42.939411 -26.157232 -3.6887898 30.885868 
	-78.242062 158.82567 -38.316053 -25.28823 -3.6887898 30.885868 -42.939411 -26.157232 
4.62e+010 -44.865972 -22.16305 -3.6943678 18.470824 -40.241226 -21.298159 -80.341191 143.52169 
	-3.6943678 18.470824 -44.865972 -22.16305 -80.341191 143.52169 -40.241226 -21.298159 
	-40.241226 -21.298159 -80.341191 143.52169 -44.865926 -22.16293 -3.6943664 18.470641 
	-80.341191 143.52169 -40.241226 -21.298159 -3.6943664 18.470641 -44.865926 -22.16293 
4.63e+010 -46.441822 -9.5903091 -3.700083 6.0546705 -41.815198 -8.7304641 -83.080868 135.4312 
	-3.700083 6.0546705 -46.441822 -9.5903091 -83.080868 135.4312 -41.815198 -8.7304641 
	-41.815198 -8.7304641 -83.080868 135.4312 -46.441763 -9.5900537 -3.7000817 6.0544882 
	-83.080868 135.4312 -41.815198 -8.7304641 -3.7000817 6.0544882 -46.441763 -9.5900537 
4.64e+010 -46.411776 8.2699306 -3.705967 -6.3614616 -41.783173 9.1199391 -85.547865 142.15445 
	-3.705967 -6.3614616 -46.411776 8.2699306 -85.547865 142.15445 -41.783173 9.1199391 
	-41.783173 9.1199391 -85.547865 142.15445 -46.411688 8.2701928 -3.7059658 -6.3616439 
	-85.547865 142.15445 -41.783173 9.1199391 -3.7059658 -6.3616439 -46.411688 8.2701928 
4.65e+010 -44.813092 20.531877 -3.712018 -18.777325 -40.183106 21.371056 -84.920506 157.46487 
	-3.712018 -18.777325 -44.813092 20.531877 -84.920506 157.46487 -40.183106 21.371056 
	-40.183106 21.371056 -84.920506 157.46487 -44.812989 20.532011 -3.7120168 -18.777507 
	-84.920506 157.46487 -40.183106 21.371056 -3.7120168 -18.777507 -44.812989 20.532011 
4.66e+010 -42.901733 24.287617 -3.7182032 -31.192724 -38.270522 25.118016 -82.139482 158.29938 
	-3.7182032 -31.192724 -42.901733 24.287617 -82.139482 158.29938 -38.270522 25.118016 
	-38.270522 25.118016 -82.139482 158.29938 -42.901632 24.287645 -3.718202 -31.192906 
	-82.139482 158.29938 -38.270522 25.118016 -3.718202 -31.192906 -42.901632 24.287645 
4.67e+010 -41.296498 22.57763 -3.7244645 -43.606853 -36.66391 23.399888 -79.627401 147.04131 
	-3.7244645 -43.606853 -41.296498 22.57763 -79.627401 147.04131 -36.66391 23.399888 
	-36.66391 23.399888 -79.627401 147.04131 -41.296402 22.577599 -3.7244631 -43.607036 
	-79.627401 147.04131 -36.66391 23.399888 -3.7244631 -43.607036 -41.296402 22.577599 
4.68e+010 -40.10861 17.907463 -3.7307293 -56.01984 -35.474561 18.721135 -77.77759 130.39551 
	-3.7307293 -56.01984 -40.10861 17.907463 -77.77759 130.39551 -35.474561 18.721135 
	-35.474561 18.721135 -77.77759 130.39551 -40.108521 17.907397 -3.7307283 -56.020023 
	-77.77759 130.39551 -35.474561 18.721135 -3.7307283 -56.020023 -40.108521 17.907397 
4.69e+010 -39.319346 11.662368 -3.7369249 -68.431775 -34.683846 12.466714 -76.500435 111.25858 
	-3.7369249 -68.431775 -39.319346 11.662368 -76.500435 111.25858 -34.683846 12.466714 
	-34.683846 12.466714 -76.500435 111.25858 -39.319263 11.662284 -3.7369239 -68.431958 
	-76.500435 111.25858 -34.683846 12.466714 -3.7369239 -68.431958 -39.319263 11.662284 
4.7e+010 -38.896631 4.6211129 -3.7429907 -80.842943 -34.25977 5.4155309 -75.693998 90.872382 
	-3.7429907 -80.842943 -38.896631 4.6211129 -75.693998 90.872382 -34.25977 5.4155309 
	-34.25977 5.4155309 -75.693998 90.872382 -38.896552 4.6210202 -3.7429893 -80.843125 
	-75.693998 90.872382 -34.25977 5.4155309 -3.7429893 -80.843125 -38.896552 4.6210202 
4.71e+010 -38.820131 -2.7115606 -3.7488897 -93.253767 -34.18205 -1.9272793 -75.295673 69.938015 
	-3.7488897 -93.253767 -38.820131 -2.7115606 -75.295673 69.938015 -34.18205 -1.9272793 
	-34.18205 -1.9272793 -75.295673 69.938015 -38.820057 -2.7116569 -3.7488884 -93.253949 
	-75.295673 69.938015 -34.18205 -1.9272793 -3.7488884 -93.253949 -38.820057 -2.7116569 
4.72e+010 -39.085427 -9.9245253 -3.7546157 -105.66529 -34.446276 -9.1500947 -75.274524 48.807351 
	-3.7546157 -105.66529 -39.085427 -9.9245253 -75.274524 48.807351 -34.446276 -9.1500947 
	-34.446276 -9.1500947 -75.274524 48.807351 -39.085359 -9.9246171 -3.7546145 -105.66547 
	-75.274524 48.807351 -34.446276 -9.1500947 -3.7546145 -105.66547 -39.085359 -9.9246171 
4.73e+010 -39.704011 -16.572222 -3.7601936 -118.07686 -35.063929 -15.806842 -75.626577 27.806628 
	-3.7601936 -118.07686 -39.704011 -16.572222 -75.626577 27.806628 -35.063929 -15.806842 
	-35.063929 -15.806842 -75.626577 27.806628 -39.703948 -16.572305 -3.7601922 -118.07705 
	-75.626577 27.806628 -35.063929 -15.806842 -3.7601922 -118.07705 -39.703948 -16.572305 
4.74e+010 -40.701236 -22.032229 -3.7656755 -130.48938 -36.060296 -21.27463 -76.379811 7.3520929 
	-3.7656755 -130.48938 -40.701236 -22.032229 -76.379811 7.3520929 -36.060296 -21.27463 
	-36.060296 -21.27463 -76.379811 7.3520929 -40.701179 -22.03229 -3.7656741 -130.48957 
	-76.379811 7.3520929 -36.060296 -21.27463 -3.7656741 -130.48957 -40.701179 -22.03229 
4.75e+010 -42.103681 -25.262446 -3.7711301 -142.90302 -37.461857 -24.511015 -77.583152 -12.025071 
	-3.7711301 -142.90302 -42.103681 -25.262446 -77.583152 -12.025071 -37.461857 -24.511015 
	-37.461857 -24.511015 -77.583152 -12.025071 -42.103631 -25.262463 -3.7711291 -142.90321 
	-77.583152 -12.025071 -37.461857 -24.511015 -3.7711291 -142.90321 -42.103631 -25.262463 
4.76e+010 -43.879012 -24.378164 -3.7766316 -155.3175 -39.236087 -23.631203 -79.334013 -29.162197 
	-3.7766316 -155.3175 -43.879012 -24.378164 -79.334013 -29.162197 -39.236087 -23.631203 
	-39.236087 -23.631203 -79.334013 -29.162197 -43.878967 -24.378102 -3.7766306 -155.31768 
	-79.334013 -29.162197 -39.236087 -23.631203 -3.7766306 -155.31768 -43.878967 -24.378102 
4.77e+010 -45.706581 -16.425615 -3.782244 -167.73307 -41.062122 -15.682494 -81.716754 -41.600174 
	-3.782244 -167.73307 -45.706581 -16.425615 -81.716754 -41.600174 -41.062122 -15.682494 
	-41.062122 -15.682494 -81.716754 -41.600174 -45.706532 -16.42543 -3.7822427 -167.73325 
	-81.716754 -41.600174 -41.062122 -15.682494 -3.7822427 -167.73325 -45.706532 -16.42543 
4.78e+010 -46.576877 -0.52342051 -3.7880107 179.8509 -41.930445 0.21269059 -84.492152 -43.595661 
	-3.7880107 179.8509 -46.576877 -0.52342051 -84.492152 -43.595661 -41.930445 0.21269059 
	-41.930445 0.21269059 -84.492152 -43.595661 -46.576805 -0.5231462 -3.7880093 179.85072 
	-84.492152 -43.595661 -41.930445 0.21269059 -3.7880093 179.85072 -46.576805 -0.5231462 
4.79e+010 -45.661039 15.183838 -3.7939456 167.43514 -41.012992 15.909221 -85.717927 -30.504832 
	-3.7939456 167.43514 -45.661039 15.183838 -85.717927 -30.504832 -41.012992 15.909221 
	-41.012992 15.909221 -85.717927 -30.504832 -45.660944 15.184035 -3.7939444 167.43496 
	-85.717927 -30.504832 -41.012992 15.909221 -3.7939444 167.43496 -45.660944 15.184035 
4.8e+010 -43.833417 22.851552 -3.800032 155.01963 -39.184192 23.567508 -83.707207 -21.369185 
	-3.800032 155.01963 -43.833417 22.851552 -83.707207 -21.369185 -39.184192 23.567508 
	-39.184192 23.567508 -83.707207 -21.369185 -43.833317 22.851627 -3.8000308 155.01944 
	-83.707207 -21.369185 -39.184192 23.567508 -3.8000308 155.01944 -43.833317 22.851627 
4.81e+010 -42.079253 23.570747 -3.8062239 142.60523 -37.428779 24.27872 -80.984109 -27.305994 
	-3.8062239 142.60523 -42.079253 23.570747 -80.984109 -27.305994 -37.428779 24.27872 
	-37.428779 24.27872 -80.984109 -27.305994 -42.079157 23.570741 -3.8062227 142.60504 
	-80.984109 -27.305994 -37.428779 24.27872 -3.8062227 142.60504 -42.079157 23.570741 
4.82e+010 -40.70143 20.27438 -3.8124563 130.19191 -36.04959 20.974377 -78.821698 -41.530115 
	-3.8124563 130.19191 -40.70143 20.27438 -78.821698 -41.530115 -36.04959 20.974377 
	-36.04959 20.974377 -78.821698 -41.530115 -40.70134 20.27433 -3.8124549 130.19173 
	-78.821698 -41.530115 -36.04959 20.974377 -3.8124549 130.19173 -40.70134 20.27433 
4.83e+010 -39.727541 14.809728 -3.818656 117.77945 -35.074319 15.501107 -77.275458 -59.506707 
	-3.818656 117.77945 -39.727541 14.809728 -77.275458 -59.506707 -35.074319 15.501107 
	-35.074319 15.501107 -77.275458 -59.506707 -39.727457 14.809653 -3.8186546 117.77927 
	-77.275458 -59.506707 -35.074319 15.501107 -3.8186546 117.77927 -39.727457 14.809653 
4.84e+010 -39.130248 8.2000565 -3.8247557 105.36815 -34.475673 8.88214 -76.241107 -79.227035 
	-3.8247557 105.36815 -39.130248 8.2000565 -76.241107 -79.227035 -34.475673 8.88214 
	-34.475673 8.88214 -76.241107 -79.227035 -39.130169 8.1999682 -3.8247545 105.36797 
	-76.241107 -79.227035 -34.475673 8.88214 -3.8247545 105.36797 -39.130169 8.1999682 
4.85e+010 -38.884034 1.0610213 -3.8307072 92.957098 -34.228196 1.733495 -75.640097 -99.811798 
	-3.8307072 92.957098 -38.884034 1.0610213 -75.640097 -99.811798 -34.228196 1.733495 
	-34.228196 1.733495 -75.640097 -99.811798 -38.883934 1.0611111 -3.8307058 92.957226 
	-75.640097 -99.811798 -34.228196 1.733495 -3.8307058 92.957226 -38.883934 1.0611111 
4.86e+010 -38.976968 -6.161644 -3.8364883 80.546456 -34.320038 -5.4988424 -75.426494 -120.79402 
	-3.8364883 80.546456 -38.976968 -6.161644 -75.426494 -120.79402 -34.320038 -5.4988424 
	-34.320038 -5.4988424 -75.426494 -120.79402 -38.976865 -6.161557 -3.836487 80.546585 
	-75.426494 -120.79402 -34.320038 -5.4988424 -3.836487 80.546585 -38.976865 -6.161557 
4.87e+010 -39.41246 -13.050714 -3.8421085 68.135442 -34.754585 -12.39705 -75.58207 -141.82812 
	-3.8421085 68.135442 -39.41246 -13.050714 -75.58207 -141.82812 -34.754585 -12.39705 
	-34.754585 -12.39705 -75.58207 -141.82812 -39.412354 -13.050635 -3.8421072 68.13557 
	-75.58207 -141.82812 -34.754585 -12.39705 -3.8421072 68.13557 -39.412354 -13.050635 
4.88e+010 -40.208319 -19.090489 -3.8476062 55.723404 -35.549634 -18.444997 -76.122459 -162.50275 
	-3.8476062 55.723404 -40.208319 -19.090489 -76.122459 -162.50275 -35.549634 -18.444997 
	-35.549634 -18.444997 -76.122459 -162.50275 -40.208262 -19.09056 -3.8476052 55.723221 
	-76.122459 -162.50275 -35.549634 -18.444997 -3.8476052 55.723221 -40.208262 -19.09056 
4.89e+010 -41.390789 -23.488123 -3.8530422 43.310574 -36.731292 -22.84929 -77.075976 177.55496 
	-3.8530422 43.310574 -41.390789 -23.488123 -77.075976 177.55496 -36.731292 -22.84929 
	-36.731292 -22.84929 -77.075976 177.55496 -41.390738 -23.488166 -3.8530408 43.310392 
	-77.075976 177.55496 -36.731292 -22.84929 -3.8530408 43.310392 -41.390738 -23.488166 
4.9e+010 -42.965195 -24.860904 -3.8584878 30.89664 -38.304782 -24.227056 -78.520181 159.19738 
	-3.8584878 30.89664 -42.965195 -24.860904 -78.520181 159.19738 -38.304782 -24.227056 
	-38.304782 -24.227056 -78.520181 159.19738 -42.96515 -24.860889 -3.8584866 30.896458 
	-78.520181 159.19738 -38.304782 -24.227056 -3.8584866 30.896458 -42.96515 -24.860889 
4.91e+010 -44.794416 -20.821146 -3.8640123 18.481736 -40.132772 -20.190935 -80.541677 143.99626 
	-3.8640123 18.481736 -44.794416 -20.821146 -80.541677 143.99626 -40.132772 -20.190935 
	-40.132772 -20.190935 -80.541677 143.99626 -44.794373 -20.821029 -3.8640111 18.481554 
	-80.541677 143.99626 -40.132772 -20.190935 -3.8640111 18.481554 -44.794373 -20.821029 
4.92e+010 -46.255339 -8.8202457 -3.8696699 6.0661779 -41.59194 -8.1947052 -83.156111 135.75459 
	-3.8696699 6.0661779 -46.255339 -8.8202457 -83.156111 135.75459 -41.59194 -8.1947052 
	-41.59194 -8.1947052 -83.156111 135.75459 -46.255283 -8.8200058 -3.8696687 6.0659955 
	-83.156111 135.75459 -41.59194 -8.1947052 -3.8696687 6.0659955 -46.255283 -8.8200058 
4.93e+010 -46.229499 7.9155537 -3.8754893 -6.3493532 -41.564256 8.5321669 -85.496885 141.14091 
	-3.8754893 -6.3493532 -46.229499 7.9155537 -85.496885 141.14091 -41.564256 8.5321669 
	-41.564256 8.5321669 -85.496885 141.14091 -46.229376 7.9161102 -3.8754881 -6.3497823 
	-85.496885 141.14091 -41.564256 8.5321669 -3.8754881 -6.3497823 -46.229376 7.9161102 
4.94e+010 -44.747783 19.647911 -3.8814695 -18.765187 -40.081278 20.254181 -85.050837 155.06109 
	-3.8814695 -18.765187 -44.747783 19.647911 -85.050837 155.06109 -40.081278 20.254181 
	-40.081278 20.254181 -85.050837 155.06109 -44.747705 19.647855 -3.8814681 -18.765058 
	-85.050837 155.06109 -40.081278 20.254181 -3.8814681 -18.765058 -44.747705 19.647855 
4.95e+010 -42.931529 23.471253 -3.8875784 -31.180029 -38.263898 24.069382 -82.457905 156.17996 
	-3.8875784 -31.180029 -42.931529 23.471253 -82.457905 156.17996 -38.263898 24.069382 
	-38.263898 24.069382 -82.457905 156.17996 -42.931449 23.471267 -3.8875772 -31.1799 
	-82.457905 156.17996 -38.263898 24.069382 -3.8875772 -31.1799 -42.931449 23.471267 
4.96e+010 -41.379958 21.99318 -3.893761 -43.593645 -36.711051 22.583755 -80.008557 145.50379 
	-3.893761 -43.593645 -41.379958 21.99318 -80.008557 145.50379 -36.711051 22.583755 
	-36.711051 22.583755 -80.008557 145.50379 -41.379826 21.993171 -3.8937598 -43.593763 
	-80.008557 145.50379 -36.711051 22.583755 -3.8937598 -43.593763 -41.379826 21.993171 
4.97e+010 -40.220724 17.565051 -3.8999476 -56.006411 -35.550507 18.147728 -78.174983 129.24299 
	-3.8999476 -56.006411 -40.220724 17.565051 -78.174983 129.24299 -35.550507 18.147728 
	-35.550507 18.147728 -78.174983 129.24299 -40.220636 17.565123 -3.8999464 -56.006282 
	-78.174983 129.24299 -35.550507 18.147728 -3.8999464 -56.006282 -40.220636 17.565123 
4.98e+010 -39.446434 11.54382 -3.9060682 -68.417919 -34.774882 12.117872 -76.897245 110.39759 
	-3.9060682 -68.417919 -39.446434 11.54382 -76.897245 110.39759 -34.774882 12.117872 
	-34.774882 12.117872 -76.897245 110.39759 -39.446342 11.543904 -3.9060669 -68.417791 
	-76.897245 110.39759 -34.774882 12.117872 -3.9060669 -68.417791 -39.446342 11.543904 
4.99e+010 -39.030386 4.7103525 -3.9120644 -80.828935 -34.357606 5.2752083 -76.083526 90.238227 
	-3.9120644 -80.828935 -39.030386 4.7103525 -76.083526 90.238227 -34.357606 5.2752083 
	-34.357606 5.2752083 -76.083526 90.238227 -39.030291 4.71044 -3.9120633 -80.828807 
	-76.083526 90.238227 -34.357606 5.2752083 -3.9120633 -80.828807 -39.030291 4.71044 
5e+010 -38.954578 -2.4219799 -3.917901 -93.239373 -34.280682 -1.8665111 -75.674173 69.490118 
	-3.917901 -93.239373 -38.954578 -2.4219799 -75.674173 69.490118 -34.280682 -1.8665111 
	-34.280682 -1.8665111 -75.674173 69.490118 -38.95448 -2.421893 -3.9178999 -93.239244 
	-75.674173 69.490118 -34.280682 -1.8665111 -3.9178999 -93.239244 -38.95448 -2.421893 
5.01e+010 -39.214899 -9.4327872 -3.9235715 -105.64995 -34.540044 -8.886573 -75.639535 48.540109 
	-3.9235715 -105.64995 -39.214899 -9.4327872 -75.639535 48.540109 -34.540044 -8.886573 
	-34.540044 -8.886573 -75.639535 48.540109 -39.214822 -9.4330133 -3.9235702 -105.65037 
	-75.639535 48.540109 -34.540044 -8.886573 -3.9235702 -105.65037 -39.214822 -9.4330133 
5.02e+010 -39.821548 -15.86881 -3.9290998 -118.06134 -35.145871 -15.33084 -75.974528 27.711314 
	-3.9290998 -118.06134 -39.821548 -15.86881 -75.974528 27.711314 -35.145871 -15.33084 
	-35.145871 -15.33084 -75.974528 27.711314 -39.821489 -15.868892 -3.9290985 -118.06152 
	-75.974528 27.711314 -35.145871 -15.33084 -3.9290985 -118.06152 -39.821489 -15.868892 
5.03e+010 -40.796197 -21.101937 -3.9345354 -130.4734 -36.119746 -20.571041 -76.703182 7.4153531 
	-3.9345354 -130.4734 -40.796197 -21.101937 -76.703182 7.4153531 -36.119746 -20.571041 
	-36.119746 -20.571041 -76.703182 7.4153531 -40.796144 -21.101995 -3.9345344 -130.47358 
	-76.703182 7.4153531 -36.119746 -20.571041 -3.9345344 -130.47358 -40.796144 -21.101995 
5.04e+010 -42.157599 -24.10142 -3.9399453 -142.88709 -37.480316 -23.576028 -77.872544 -11.790376 
	-3.9399453 -142.88709 -42.157599 -24.10142 -77.872544 -11.790376 -37.480316 -23.576028 
	-37.480316 -23.576028 -77.872544 -11.790376 -42.157487 -24.1014 -3.9399441 -142.88696 
	-77.872544 -11.790376 -37.480316 -23.576028 -3.9399441 -142.88696 -42.157487 -24.1014 
5.05e+010 -43.859403 -23.061351 -3.9453994 -155.30126 -39.18111 -22.539964 -79.567783 -28.775961 
	-3.9453994 -155.30126 -43.859403 -23.061351 -79.567783 -28.775961 -39.18111 -22.539964 
	-39.18111 -22.539964 -79.567783 -28.775961 -43.859289 -23.061388 -3.945398 -155.30113 
	-79.567783 -28.775961 -39.18111 -22.539964 -3.945398 -155.30113 -43.859289 -23.061388 
5.06e+010 -45.575809 -15.316078 -3.9509596 -167.71625 -40.896075 -14.798282 -81.870339 -41.108659 
	-3.9509596 -167.71625 -45.575809 -15.316078 -81.870339 -41.108659 -40.896075 -14.798282 
	-40.896075 -14.798282 -81.870339 -41.108659 -45.5757 -15.316196 -3.9509582 -167.71612 
	-81.870339 -41.108659 -40.896075 -14.798282 -3.9509582 -167.71612 -45.5757 -15.316196 
5.07e+010 -46.377544 -0.33575577 -3.9566677 179.86832 -41.695993 0.17545757 -84.502545 -43.663299 
	-3.9566677 179.86832 -46.377544 -0.33575577 -84.502545 -43.663299 -41.695993 0.17545757 
	-41.695993 0.17545757 -84.502545 -43.663299 -46.37745 -0.33591603 -3.9566665 179.86845 
	-84.502545 -43.663299 -41.695993 0.17545757 -3.9566665 179.86845 -46.37745 -0.33591603 
5.08e+010 -45.537489 14.483529 -3.9625377 167.45291 -40.854469 14.984866 -85.728449 -32.2793 
	-3.9625377 167.45291 -45.537489 14.483529 -85.728449 -32.2793 -40.854469 14.984866 
	-40.854469 14.984866 -85.728449 -32.2793 -45.537409 14.483427 -3.9625364 167.45304 
	-85.728449 -32.2793 -40.854469 14.984866 -3.9625364 167.45304 -45.537409 14.483427 
5.09e+010 -43.820569 21.98351 -3.9685533 155.03796 -39.136458 22.476101 -83.941801 -23.591574 
	-3.9685533 155.03796 -43.820569 21.98351 -83.941801 -23.591574 -39.136458 22.476101 
	-39.136458 22.476101 -83.941801 -23.591574 -43.820492 21.983492 -3.9685519 155.03809 
	-83.941801 -23.591574 -39.136458 22.476101 -3.9685519 155.03809 -43.820492 21.983492 
5.1e+010 -42.137407 22.876259 -3.9746706 142.62385 -37.452166 23.361441 -81.335183 -29.089757 
	-3.9746706 142.62385 -42.137407 22.876259 -81.335183 -29.089757 -37.452166 23.361441 
	-37.452166 23.361441 -81.335183 -29.089757 -42.137327 22.876293 -3.9746692 142.62398 
	-81.335183 -29.089757 -37.452166 23.361441 -3.9746692 142.62398 -42.137327 22.876293 
5.11e+010 -40.798456 19.817582 -3.980827 130.21103 -36.11193 20.29529 -79.206778 -42.795045 
	-3.980827 130.21103 -40.798456 19.817582 -79.206778 -42.795045 -36.11193 20.29529 
	-36.11193 20.29529 -79.206778 -42.795045 -40.798327 19.817447 -3.9808259 130.2106 
	-79.206778 -42.795045 -36.11193 20.29529 -3.9808259 130.2106 -40.798327 19.817447 
5.12e+010 -39.845284 14.582144 -3.9869528 117.79901 -35.157497 15.051901 -77.667855 -60.426679 
	-3.9869528 117.79901 -39.845284 14.582144 -77.667855 -60.426679 -35.157497 15.051901 
	-35.157497 15.051901 -77.667855 -60.426679 -39.845203 14.58207 -3.9869515 117.79883 
	-77.667855 -60.426679 -35.157497 15.051901 -3.9869515 117.79883 -39.845203 14.58207 
5.13e+010 -39.258252 8.184247 -3.9929834 105.38788 -34.569242 8.6453718 -76.630725 -79.899313 
	-3.9929834 105.38788 -39.258252 8.184247 -76.630725 -79.899313 -34.569242 8.6453718 
	-34.569242 8.6453718 -76.630725 -79.899313 -39.258177 8.1841588 -3.992982 105.3877 
	-76.630725 -79.899313 -34.569242 8.6453718 -3.992982 105.3877 -39.258177 8.1841588 
5.14e+010 -39.015441 1.2457775 -3.9988717 92.977529 -34.325297 1.6978189 -76.020867 -100.31742 
	-3.9988717 92.977529 -39.015441 1.2457775 -76.020867 -100.31742 -34.325297 1.6978189 
	-34.325297 1.6978189 -76.020867 -100.31742 -39.015349 1.2455445 -3.9988703 92.9771 
	-76.020867 -100.31742 -34.325297 1.6978189 -3.9988703 92.9771 -39.015349 1.2455445 
5.15e+010 -39.106128 -5.7797545 -4.0045965 80.567033 -34.415014 -5.3366092 -75.79455 -121.14022 
	-4.0045965 80.567033 -39.106128 -5.7797545 -75.79455 -121.14022 -34.415014 -5.3366092 
	-34.415014 -5.3366092 -75.79455 -121.14022 -39.106063 -5.779848 -4.0045953 80.56685 
	-75.79455 -121.14022 -34.415014 -5.3366092 -4.0045953 80.56685 -39.106063 -5.779848 
5.16e+010 -39.533296 -12.466291 -4.0101667 68.156428 -34.841331 -12.03163 -75.937701 -141.97437 
	-4.0101667 68.156428 -39.533296 -12.466291 -75.937701 -141.97437 -34.841331 -12.03163 
	-34.841331 -12.03163 -75.937701 -141.97437 -39.533227 -12.466503 -4.0101656 68.155999 
	-75.937701 -141.97437 -34.841331 -12.03163 -4.0101656 68.155999 -39.533227 -12.466503 
5.17e+010 -40.312403 -18.29158 -4.0156193 55.744832 -35.619693 -17.864273 -76.454646 -162.52186 
	-4.0156193 55.744832 -40.312403 -18.29158 -76.454646 -162.52186 -35.619693 -17.864273 
	-35.619693 -17.864273 -76.454646 -162.52186 -40.312348 -18.291652 -4.0156179 55.74465 
	-76.454646 -162.52186 -35.619693 -17.864273 -4.0156179 55.74465 -40.312348 -18.291652 
5.18e+010 -41.464343 -22.464275 -4.0210122 43.332488 -36.770893 -22.04299 -77.382765 177.71821 
	-4.0210122 43.332488 -41.464343 -22.464275 -77.382765 177.71821 -36.770893 -22.04299 
	-36.770893 -22.04299 -77.382765 177.71821 -41.464295 -22.464317 -4.0210108 43.332305 
	-77.382765 177.71821 -36.770893 -22.04299 -4.0210108 43.332305 -41.464295 -22.464317 
5.19e+010 -42.984051 -23.637603 -4.0264138 30.919082 -38.289767 -23.22074 -78.781669 159.50494 
	-4.0264138 30.919082 -42.984051 -23.637603 -78.781669 159.50494 -38.289767 -23.22074 
	-38.289767 -23.22074 -78.781669 159.50494 -42.98402 -23.637566 -4.0264126 30.918653 
	-78.781669 159.50494 -38.289767 -23.22074 -4.0264126 30.918653 -42.98402 -23.637566 
5.2e+010 -44.721732 -19.583183 -4.0318912 18.504497 -40.02629 -19.169569 -80.741195 144.45741 
	-4.0318912 18.504497 -44.721732 -19.583183 -80.741195 144.45741 -40.02629 -19.169569 
	-40.02629 -19.169569 -80.741195 144.45741 -44.721691 -19.58307 -4.03189 18.504315 
	-80.741195 144.45741 -40.02629 -19.169569 -4.03189 18.504315 -44.721691 -19.58307 
5.21e+010 -46.080338 -8.1317897 -4.0374963 6.0889712 -41.383244 -7.7225225 -83.236784 136.04799 
	-4.0374963 6.0889712 -46.080338 -8.1317897 -83.236784 136.04799 -41.383244 -7.7225225 
	-41.383244 -7.7225225 -83.236784 136.04799 -46.080285 -8.1315665 -4.0374949 6.0887888 
	-83.236784 136.04799 -41.383244 -7.7225225 -4.0374949 6.0887888 -46.080285 -8.1315665 
5.22e+010 -46.059596 7.5854134 -4.0432566 -6.3262112 -41.360803 7.9864044 -85.465592 140.26639 
	-4.0432566 -6.3262112 -46.059596 7.5854134 -85.465592 140.26639 -41.360803 7.9864044 
	-41.360803 7.9864044 -85.465592 140.26639 -46.059481 7.5859372 -4.0432552 -6.3266403 
	-85.465592 140.26639 -41.360803 7.9864044 -4.0432552 -6.3266403 -46.059481 7.5859372 
5.23e+010 -44.683988 18.817111 -4.049171 -18.741152 -39.983993 19.2086 -85.167619 152.68885 
	-4.049171 -18.741152 -44.683988 18.817111 -85.167619 152.68885 -39.983993 19.2086 
	-39.983993 19.2086 -85.167619 152.68885 -44.683842 18.817384 -4.0491699 -18.741581 
	-85.167619 152.68885 -39.983993 19.2086 -4.0491699 -18.741581 -44.683842 18.817384 
5.24e+010 -42.957418 22.688365 -4.05521 -31.155441 -38.256383 23.07204 -82.759493 154.08874 
	-4.05521 -31.155441 -42.957418 22.688365 -82.759493 154.08874 -38.256383 23.07204 
	-38.256383 23.07204 -82.759493 154.08874 -42.957273 22.688413 -4.0552086 -31.15587 
	-82.759493 154.08874 -38.256383 23.07204 -4.0552086 -31.15587 -42.957273 22.688413 
5.25e+010 -41.457862 21.424695 -4.0613199 -43.568791 -36.755691 21.801248 -80.377561 143.91694 
	-4.0613199 -43.568791 -41.457862 21.424695 -80.377561 143.91694 -36.755691 21.801248 
	-36.755691 21.801248 -80.377561 143.91694 -41.457728 21.424607 -4.0613186 -43.56922 
	-80.377561 143.91694 -36.755691 21.801248 -4.0613186 -43.56922 -41.457728 21.424607 
5.26e+010 -40.326837 17.227846 -4.0674346 -55.981088 -35.623456 17.596975 -78.561119 128.08477 
	-4.0674346 -55.981088 -40.326837 17.227846 -78.561119 128.08477 -35.623456 17.596975 
	-35.623456 17.596975 -78.561119 128.08477 -40.326717 17.227683 -4.0674331 -55.981517 
	-78.561119 128.08477 -35.623456 17.596975 -4.0674331 -55.981517 -40.326717 17.227683 
5.27e+010 -39.567248 11.423246 -4.0734859 -68.392413 -34.862662 11.784326 -77.283821 109.53443 
	-4.0734859 -68.392413 -39.567248 11.423246 -77.283821 109.53443 -34.862662 11.784326 
	-34.862662 11.784326 -77.283821 109.53443 -39.56714 11.42304 -4.0734848 -68.392842 
	-77.283821 109.53443 -34.862662 11.784326 -4.0734848 -68.392842 -39.56714 11.42304 
5.28e+010 -39.157681 4.7921919 -4.0794185 -80.803027 -34.451971 5.1447157 -76.465113 89.669954 
	-4.0794185 -80.803027 -39.157681 4.7921919 -76.465113 89.669954 -34.451971 5.1447157 
	-34.451971 5.1447157 -76.465113 89.669954 -39.157585 4.7919651 -4.0794171 -80.803456 
	-76.465113 89.669954 -34.451971 5.1447157 -4.0794171 -80.803456 -39.157585 4.7919651 
5.29e+010 -39.082284 -2.1450847 -4.085198 -93.213318 -34.375575 -1.8012166 -76.047058 69.118217 
	-4.085198 -93.213318 -39.082284 -2.1450847 -76.047058 69.118217 -34.375575 -1.8012166 
	-34.375575 -1.8012166 -76.047058 69.118217 -39.082218 -2.1451794 -4.0851966 -93.213501 
	-76.047058 69.118217 -34.375575 -1.8012166 -4.0851966 -93.213501 -39.082218 -2.1451794 
5.3e+010 -39.337325 -8.9599868 -4.0908179 -105.62374 -34.629755 -8.6245571 -75.997684 48.301674 
	-4.0908179 -105.62374 -39.337325 -8.9599868 -75.997684 48.301674 -34.629755 -8.6245571 
	-34.629755 -8.6245571 -75.997684 48.301674 -39.337264 -8.9600784 -4.0908165 -105.62392 
	-75.997684 48.301674 -34.629755 -8.6245571 -4.0908165 -105.62392 -39.337264 -8.9600784 
5.31e+010 -39.931716 -15.1919 -4.0963009 -118.03471 -35.223402 -14.864129 -76.316585 27.641297 
	-4.0963009 -118.03471 -39.931716 -15.1919 -76.316585 27.641297 -35.223402 -14.864129 
	-35.223402 -14.864129 -76.316585 27.641297 -39.93166 -15.19198 -4.0962997 -118.03489 
	-76.316585 27.641297 -35.223402 -14.864129 -4.0962997 -118.03489 -39.93166 -15.19198 
5.32e+010 -40.883552 -20.209772 -4.1016951 -130.4463 -36.174542 -19.888499 -77.023649 7.5127578 
	-4.1016951 -130.4463 -40.883552 -20.209772 -77.023649 7.5127578 -36.174542 -19.888499 
	-36.174542 -19.888499 -77.023649 7.5127578 -40.883504 -20.209912 -4.1016937 -130.44673 
	-77.023649 7.5127578 -36.174542 -19.888499 -4.1016937 -130.44673 -40.883504 -20.209912 
5.33e+010 -42.204167 -22.99732 -4.1070636 -142.85917 -37.49442 -22.680973 -78.159854 -11.533731 
	-4.1070636 -142.85917 -42.204167 -22.99732 -78.159854 -11.533731 -37.49442 -22.680973 
	-37.49442 -22.680973 -78.159854 -11.533731 -42.204123 -22.997337 -4.1070622 -142.85935 
	-78.159854 -11.533731 -37.49442 -22.680973 -4.1070622 -142.85935 -42.204123 -22.997337 
5.34e+010 -43.835309 -21.830148 -4.1124745 -155.2728 -39.124631 -21.517258 -79.805099 -28.364038 
	-4.1124745 -155.2728 -43.835309 -21.830148 -79.805099 -28.364038 -39.124631 -21.517258 
	-39.124631 -21.517258 -79.805099 -28.364038 -43.835283 -21.830013 -4.1124732 -155.27323 
	-79.805099 -28.364038 -39.124631 -21.517258 -4.1124732 -155.27323 -43.835283 -21.830013 
5.35e+010 -45.449811 -14.30666 -4.1179869 -167.68746 -40.73777 -13.996994 -82.005886 -40.735707 
	-4.1179869 -167.68746 -45.449811 -14.30666 -82.005886 -40.735707 -40.73777 -13.996994 
	-40.73777 -13.996994 -82.005886 -40.735707 -45.449767 -14.306492 -4.1179857 -167.68764 
	-82.005886 -40.735707 -40.73777 -13.996994 -4.1179857 -167.68764 -45.449767 -14.306492 
5.36e+010 -46.192163 -0.17485853 -4.1236418 179.8969 -41.478419 0.12872378 -84.504917 -43.863349 
	-4.1236418 179.8969 -46.192163 -0.17485853 -84.504917 -43.863349 -41.478419 0.12872378 
	-41.478419 0.12872378 -84.504917 -43.863349 -46.192099 -0.17462049 -4.1236405 179.89672 
	-84.504917 -43.863349 -41.478419 0.12872378 -4.1236405 179.89672 -46.192099 -0.17462049 
5.37e+010 -45.420428 13.831348 -4.1294519 167.48208 -40.705285 14.125676 -85.736794 -34.01792 
	-4.1294519 167.48208 -45.420428 13.831348 -85.736794 -34.01792 -40.705285 14.125676 
	-40.705285 14.125676 -85.736794 -34.01792 -45.420344 13.831526 -4.1294505 167.4819 
	-85.736794 -34.01792 -40.705285 14.125676 -4.1294505 167.4819 -45.420344 13.831526 
5.38e+010 -43.805969 21.158616 -4.1354019 155.0677 -39.08978 21.444651 -84.161115 -25.927918 
	-4.1354019 155.0677 -43.805969 21.158616 -84.161115 -25.927918 -39.08978 21.444651 
	-39.08978 21.444651 -84.161115 -25.927918 -43.805825 21.158764 -4.1354007 155.06727 
	-84.161115 -25.927918 -39.08978 21.444651 -4.1354007 155.06727 -43.805825 21.158764 
5.39e+010 -42.190869 22.205295 -4.1414504 142.65388 -37.473675 22.484257 -81.672948 -30.916183 
	-4.1414504 142.65388 -42.190869 22.205295 -81.672948 -30.916183 -37.473675 22.484257 
	-37.473675 22.484257 -81.672948 -30.916183 -42.190782 22.205291 -4.1414492 142.65369 
	-81.672948 -30.916183 -37.473675 22.484257 -4.1414492 142.65369 -42.190782 22.205291 
5.4e+010 -40.889895 19.370839 -4.147537 130.2413 -36.171561 19.642871 -79.582028 -44.152135 
	-4.147537 130.2413 -40.889895 19.370839 -79.582028 -44.152135 -36.171561 19.642871 
	-36.171561 19.642871 -79.582028 -44.152135 -40.889813 19.370791 -4.1475356 130.24111 
	-79.582028 -44.152135 -36.171561 19.642871 -4.1475356 130.24111 -40.889813 19.370791 
5.41e+010 -39.957136 14.35615 -4.1535945 117.82973 -35.237618 14.620674 -78.050466 -61.438799 
	-4.1535945 117.82973 -39.957136 14.35615 -78.050466 -61.438799 -35.237618 14.620674 
	-35.237618 14.620674 -78.050466 -61.438799 -39.957025 14.355964 -4.1535931 117.8293 
	-78.050466 -61.438799 -35.237618 14.620674 -4.1535931 117.8293 -39.957025 14.355964 
5.42e+010 -39.380197 8.1641616 -4.1595612 105.41901 -34.65955 8.4206344 -77.009752 -80.657237 
	-4.1595612 105.41901 -39.380197 8.1641616 -77.009752 -80.657237 -34.65955 8.4206344 
	-34.65955 8.4206344 -77.009752 -80.657237 -39.380097 8.1639451 -4.1595598 105.41858 
	-77.009752 -80.657237 -34.65955 8.4206344 -4.1595598 105.41858 -39.380097 8.1639451 
5.43e+010 -39.140549 1.4207047 -4.1653912 93.008567 -34.418899 1.6688452 -76.390929 -100.8692 
	-4.1653912 93.008567 -39.140549 1.4207047 -76.390929 -100.8692 -34.418899 1.6688452 
	-34.418899 1.6688452 -76.390929 -100.8692 -39.140482 1.4206118 -4.16539 93.008385 
	-76.390929 -100.8692 -34.418899 1.6688452 -4.16539 93.008385 -39.140482 1.4206118 
5.44e+010 -39.228753 -5.4128076 -4.1710644 80.598468 -34.50621 -5.1730029 -76.152841 -121.50237 
	-4.1710644 80.598468 -39.228753 -5.4128076 -76.152841 -121.50237 -34.50621 -5.1730029 
	-34.50621 -5.1730029 -76.152841 -121.50237 -39.228692 -5.412901 -4.1710631 80.598286 
	-76.152841 -121.50237 -34.50621 -5.1730029 -4.1710631 80.598286 -39.228692 -5.412901 
5.45e+010 -39.647282 -11.903368 -4.1765893 68.18803 -34.923975 -11.671365 -76.278803 -142.18973 
	-4.1765893 68.18803 -39.647282 -11.903368 -76.278803 -142.18973 -34.923975 -11.671365 
	-34.923975 -11.671365 -76.278803 -142.18973 -39.647225 -11.903454 -4.1765879 68.187848 
	-76.278803 -142.18973 -34.923975 -11.671365 -4.1765879 68.187848 -39.647225 -11.903454 
5.46e+010 -40.40936 -17.523309 -4.1820006 55.77688 -35.685378 -17.298122 -76.775684 -162.56937 
	-4.1820006 55.77688 -40.40936 -17.523309 -76.775684 -162.56937 -35.685378 -17.298122 
	-35.685378 -17.298122 -76.775684 -162.56937 -40.409309 -17.52338 -4.1819993 55.776697 
	-76.775684 -162.56937 -35.685378 -17.298122 -4.1819993 55.776697 -40.409309 -17.52338 
5.47e+010 -41.530802 -21.485431 -4.1873542 43.364774 -36.806157 -21.265711 -77.674562 177.82594 
	-4.1873542 43.364774 -41.530802 -21.485431 -77.674562 177.82594 -36.806157 -21.265711 
	-36.806157 -21.265711 -77.674562 177.82594 -41.530757 -21.48547 -4.187353 43.364592 
	-77.674562 177.82594 -36.806157 -21.265711 -4.187353 43.364592 -41.530757 -21.48547 
5.48e+010 -42.997166 -22.481871 -4.1927162 30.951649 -38.271743 -22.266107 -79.032031 159.77196 
	-4.1927162 30.951649 -42.997166 -22.481871 -79.032031 159.77196 -38.271743 -22.266107 
	-38.271743 -22.266107 -79.032031 159.77196 -42.997126 -22.481856 -4.1927148 30.951467 
	-79.032031 159.77196 -38.271743 -22.266107 -4.1927148 30.951467 -42.997126 -22.481856 
5.49e+010 -44.648774 -18.43813 -4.1981504 18.537873 -39.922263 -18.22519 -80.920846 144.81287 
	-4.1981504 18.537873 -44.648774 -18.43813 -80.920846 144.81287 -39.922263 -18.22519 
	-39.922263 -18.22519 -80.920846 144.81287 -44.648747 -18.437877 -4.198149 18.537444 
	-80.920846 144.81287 -39.922263 -18.22519 -4.198149 18.537444 -44.648747 -18.437877 
5.5e+010 -45.915803 -7.51396 -4.2037068 6.1232425 -41.187749 -7.3050231 -83.312749 136.26387 
	-4.2037068 6.1232425 -45.915803 -7.51396 -83.312749 136.26387 -41.187749 -7.3050231 
	-41.187749 -7.3050231 -83.312749 136.26387 -45.915747 -7.5134709 -4.2037053 6.1228133 
	-83.312749 136.26387 -41.187749 -7.3050231 -4.2037053 6.1228133 -45.915747 -7.5134709 
5.51e+010 -45.900857 7.2760965 -4.2094123 -6.2915965 -41.171221 7.4771923 -85.442498 139.41776 
	-4.2094123 -6.2915965 -45.900857 7.2760965 -85.442498 139.41776 -41.171221 7.4771923 
	-41.171221 7.4771923 -85.442498 139.41776 -45.900748 7.2765897 -4.2094112 -6.2920257 
	-85.442498 139.41776 -41.171221 7.4771923 -4.2094112 -6.2920257 -45.900748 7.2765897 
5.52e+010 -44.621775 18.035513 -4.2152666 -18.706206 -39.891037 18.227631 -85.27459 150.45856 
	-4.2152666 -18.706206 -44.621775 18.035513 -85.27459 150.45856 -39.891037 18.227631 
	-39.891037 18.227631 -85.27459 150.45856 -44.621689 18.035633 -4.2152653 -18.706389 
	-85.27459 150.45856 -39.891037 18.227631 -4.2152653 -18.706389 -44.621689 18.035633 
5.53e+010 -42.979789 21.937671 -4.2212409 -31.120503 -38.248058 22.122471 -83.045291 152.01797 
	-4.2212409 -31.120503 -42.979789 21.937671 -83.045291 152.01797 -38.248058 22.122471 
	-38.248058 22.122471 -83.045291 152.01797 -42.979651 21.937722 -4.2212395 -31.120933 
	-83.045291 152.01797 -38.248058 22.122471 -4.2212395 -31.120933 -42.979651 21.937722 
5.54e+010 -41.530704 20.87204 -4.2272835 -43.533589 -36.79794 21.050149 -80.732456 142.40117 
	-4.2272835 -43.533589 -41.530704 20.87204 -80.732456 142.40117 -36.79794 21.050149 
	-36.79794 21.050149 -80.732456 142.40117 -41.530576 20.871959 -4.2272822 -43.534018 
	-80.732456 142.40117 -36.79794 21.050149 -4.2272822 -43.534018 -41.530576 20.871959 
5.55e+010 -40.42739 16.895983 -4.2333311 -55.945663 -35.693531 17.067197 -78.936464 126.93786 
	-4.2333311 -55.945663 -40.42739 16.895983 -78.936464 126.93786 -35.693531 17.067197 
	-35.693531 17.067197 -78.936464 126.93786 -40.427313 16.895921 -4.2333298 -55.945845 
	-78.936464 126.93786 -35.693531 17.067197 -4.2333298 -55.945845 -40.427313 16.895921 
5.56e+010 -39.682337 11.301228 -4.2393189 -68.356555 -34.947351 11.464881 -77.661036 108.69591 
	-4.2393189 -68.356555 -39.682337 11.301228 -77.661036 108.69591 -34.947351 11.464881 
	-34.947351 11.464881 -77.661036 108.69591 -39.682234 11.301026 -4.2393175 -68.356984 
	-77.661036 108.69591 -34.947351 11.464881 -4.2393175 -68.356984 -39.682234 11.301026 
5.57e+010 -39.279051 4.8671589 -4.2451927 -80.767008 -34.543043 5.0228893 -76.836072 89.030468 
	-4.2451927 -80.767008 -39.279051 4.8671589 -76.836072 89.030468 -34.543043 5.0228893 
	-34.543043 5.0228893 -76.836072 89.030468 -39.278983 4.8670681 -4.2451913 -80.76719 
	-76.836072 89.030468 -34.543043 5.0228893 -4.2451913 -80.76719 -39.278983 4.8670681 
5.58e+010 -39.203873 -1.8798794 -4.2509193 -93.176902 -34.466941 -1.7323533 -76.40617 68.637705 
	-4.2509193 -93.176902 -39.203873 -1.8798794 -76.40617 68.637705 -34.466941 -1.7323533 
	-34.466941 -1.7323533 -76.40617 68.637705 -39.203793 -1.8801062 -4.2509181 -93.177331 
	-76.40617 68.637705 -34.466941 -1.7323533 -4.2509181 -93.177331 -39.203793 -1.8801062 
5.59e+010 -39.453375 -8.5044875 -4.2564929 -105.58716 -34.715667 -8.3647325 -76.345187 48.029662 
	-4.2564929 -105.58716 -39.453375 -8.5044875 -76.345187 48.029662 -34.715667 -8.3647325 
	-34.715667 -8.3647325 -76.345187 48.029662 -39.453317 -8.5045768 -4.2564916 -105.58734 
	-76.345187 48.029662 -34.715667 -8.3647325 -4.2564916 -105.58734 -39.453317 -8.5045768 
5.6e+010 -40.03523 -14.539693 -4.2619349 -117.9977 -35.29684 -14.40702 -76.645846 27.522773 
	-4.2619349 -117.9977 -40.03523 -14.539693 -76.645846 27.522773 -35.29684 -14.40702 
	-35.29684 -14.40702 -76.645846 27.522773 -40.035178 -14.539773 -4.2619335 -117.99788 
	-76.645846 27.522773 -35.29684 -14.40702 -4.2619335 -117.99788 -40.035178 -14.539773 
5.61e+010 -40.964111 -19.353444 -4.267291 -130.40907 -36.2251 -19.226727 -77.325156 7.5218774 
	-4.267291 -130.40907 -40.964111 -19.353444 -77.325156 7.5218774 -36.2251 -19.226727 
	-36.2251 -19.226727 -77.325156 7.5218774 -40.964066 -19.353579 -4.2672896 -130.4095 
	-77.325156 7.5218774 -36.2251 -19.226727 -4.2672896 -130.4095 -40.964066 -19.353579 
5.62e+010 -42.244541 -21.946568 -4.272622 -142.82144 -37.504855 -21.824299 -78.432023 -11.337097 
	-4.272622 -142.82144 -42.244541 -21.946568 -78.432023 -11.337097 -37.504855 -21.824299 
	-37.504855 -21.824299 -78.432023 -11.337097 -42.244509 -21.946603 -4.2726208 -142.82187 
	-78.432023 -11.337097 -37.504855 -21.824299 -4.2726208 -142.82187 -42.244509 -21.946603 
5.63e+010 -43.80798 -20.676631 -4.2779934 -155.23502 -39.067418 -20.557466 -80.018209 -28.068525 
	-4.2779934 -155.23502 -43.80798 -20.676631 -80.018209 -28.068525 -39.067418 -20.557466 
	-39.067418 -20.557466 -80.018209 -28.068525 -43.807942 -20.676574 -4.2779921 -155.2352 
	-80.018209 -28.068525 -39.067418 -20.557466 -4.2779921 -155.2352 -43.807942 -20.676574 
5.64e+010 -45.328894 -13.383493 -4.2834622 -167.6491 -40.587052 -13.267257 -82.132961 -40.435784 
	-4.2834622 -167.6491 -45.328894 -13.383493 -82.132961 -40.435784 -40.587052 -13.267257 
	-40.587052 -13.267257 -82.132961 -40.435784 -45.328851 -13.383335 -4.2834608 -167.64928 
	-82.132961 -40.435784 -40.587052 -13.267257 -4.2834608 -167.64928 -45.328851 -13.383335 
5.65e+010 -46.019347 -0.036411139 -4.2890675 179.9364 -41.275907 0.074117006 -84.524207 -44.013676 
	-4.2890675 179.9364 -46.019347 -0.036411139 -84.524207 -44.013676 -41.275907 0.074117006 
	-41.275907 0.074117006 -84.524207 -44.013676 -46.019286 -0.036188072 -4.289066 179.93622 
	-84.524207 -44.013676 -41.275907 0.074117006 -4.289066 179.93622 -46.019286 -0.036188072 
5.66e+010 -45.309409 13.222883 -4.294822 167.52192 -40.564652 13.324894 -85.741489 -35.741834 
	-4.294822 167.52192 -45.309409 13.222883 -85.741489 -35.741834 -40.564652 13.324894 
	-40.564652 13.324894 -85.741489 -35.741834 -45.309285 13.223264 -4.2948208 167.52149 
	-85.741489 -35.741834 -40.564652 13.324894 -4.2948208 167.52149 -45.309285 13.223264 
5.67e+010 -43.789918 20.374464 -4.3007115 155.10786 -39.044203 20.468526 -84.364784 -28.205761 
	-4.3007115 155.10786 -43.789918 20.374464 -84.364784 -28.205761 -39.044203 20.468526 
	-39.044203 20.468526 -84.364784 -28.205761 -43.789781 20.37461 -4.3007103 155.10743 
	-84.364784 -28.205761 -39.044203 20.468526 -4.3007103 155.10743 -43.789781 20.37461 
5.68e+010 -42.240064 21.557244 -4.3066962 142.694 -37.493395 21.644607 -81.995698 -32.667469 
	-4.3066962 142.694 -42.240064 21.557244 -81.995698 -32.667469 -37.493395 21.644607 
	-37.493395 21.644607 -81.995698 -32.667469 -42.239933 21.557221 -4.3066949 142.69357 
	-81.995698 -32.667469 -37.493395 21.644607 -4.3066949 142.69357 -42.239933 21.557221 
5.69e+010 -40.976242 18.934291 -4.312718 130.28167 -36.228535 19.01512 -79.9457 -45.504183 
	-4.312718 130.28167 -40.976242 18.934291 -79.9457 -45.504183 -36.228535 19.01512 
	-36.228535 19.01512 -79.9457 -45.504183 -40.976123 18.934168 -4.3127165 130.28124 
	-79.9457 -45.504183 -36.228535 19.01512 -4.3127165 130.28124 -40.976123 18.934168 
5.7e+010 -40.06358 14.132091 -4.3187121 117.87031 -35.314807 14.205991 -78.423371 -62.414846 
	-4.3187121 117.87031 -40.06358 14.132091 -78.423371 -62.414846 -35.314807 14.205991 
	-35.314807 14.205991 -78.423371 -62.414846 -40.063506 14.132019 -4.3187109 117.87012 
	-78.423371 -62.414846 -35.314807 14.205991 -4.3187109 117.87012 -40.063506 14.132019 
5.71e+010 -39.49654 8.140069 -4.3246193 105.45976 -34.746732 8.206449 -77.380435 -81.380425 
	-4.3246193 105.45976 -39.49654 8.140069 -77.380435 -81.380425 -34.746732 8.206449 
	-34.746732 8.206449 -77.380435 -81.380425 -39.496471 8.1399828 -4.324618 105.45958 
	-77.380435 -81.380425 -34.746732 8.206449 -4.324618 105.45958 -39.496471 8.1399828 
5.72e+010 -39.259928 1.5869613 -4.3303959 93.049718 -34.509184 1.6454981 -76.754322 -101.37598 
	-4.3303959 93.049718 -39.259928 1.5869613 -76.754322 -101.37598 -34.509184 1.6454981 
	-34.509184 1.6454981 -76.754322 -101.37598 -39.259864 1.5868688 -4.3303946 93.049536 
	-76.754322 -101.37598 -34.509184 1.6454981 -4.3303946 93.049536 -39.259864 1.5868688 
5.73e+010 -39.345424 -5.0596035 -4.3360219 80.640021 -34.593856 -5.0089026 -76.505718 -121.82328 
	-4.3360219 80.640021 -39.345424 -5.0596035 -76.505718 -121.82328 -34.593856 -5.0089026 
	-34.593856 -5.0089026 -76.505718 -121.82328 -39.345352 -5.0598254 -4.3360204 80.639592 
	-76.505718 -121.82328 -34.593856 -5.0089026 -4.3360204 80.639592 -39.345352 -5.0598254 
5.74e+010 -39.755059 -11.3604 -4.3415047 68.229754 -35.002807 -11.316941 -76.616855 -142.35328 
	-4.3415047 68.229754 -39.755059 -11.3604 -76.616855 -142.35328 -35.002807 -11.316941 
	-35.002807 -11.316941 -76.616855 -142.35328 -39.754998 -11.360603 -4.3415034 68.229325 
	-76.616855 -142.35328 -35.002807 -11.316941 -4.3415034 68.229325 -39.754998 -11.360603 
5.75e+010 -40.4999 -16.783842 -4.3468784 55.818805 -35.747037 -16.746609 -77.095365 -162.56978 
	-4.3468784 55.818805 -40.4999 -16.783842 -77.095365 -162.56978 -35.747037 -16.746609 
	-35.747037 -16.746609 -77.095365 -162.56978 -40.499851 -16.783912 -4.346877 55.818623 
	-77.095365 -162.56978 -35.747037 -16.746609 -4.346877 55.818623 -40.499851 -16.783912 
5.76e+010 -41.590973 -20.548775 -4.3521964 43.407186 -36.837505 -20.516552 -77.964793 177.9609 
	-4.3521964 43.407186 -41.590973 -20.548775 -77.964793 177.9609 -36.837505 -20.516552 
	-36.837505 -20.516552 -77.964793 177.9609 -41.590936 -20.548865 -4.3521951 43.406757 
	-77.964793 177.9609 -36.837505 -20.516552 -4.3521951 43.406757 -41.590936 -20.548865 
5.77e+010 -43.005426 -21.388892 -4.3575219 30.99434 -38.251245 -21.360182 -79.281045 160.04787 
	-4.3575219 30.99434 -43.005426 -21.388892 -79.281045 160.04787 -38.251245 -21.360182 
	-38.251245 -21.360182 -79.281045 160.04787 -43.0054 -21.388853 -4.3575205 30.99391 
	-79.281045 160.04787 -38.251245 -21.360182 -4.3575205 30.99391 -43.0054 -21.388853 
5.78e+010 -44.576197 -17.376365 -4.3629162 18.580876 -39.820978 -17.350213 -81.106753 145.18671 
	-4.3629162 18.580876 -44.576197 -17.376365 -81.106753 145.18671 -39.820978 -17.350213 
	-39.820978 -17.350213 -81.106753 145.18671 -44.57617 -17.376119 -4.362915 18.580447 
	-81.106753 145.18671 -39.820978 -17.350213 -4.362915 18.580447 -44.57617 -17.376119 
5.79e+010 -45.761049 -6.9548233 -4.368428 6.1665792 -41.004388 -6.9324204 -83.384158 136.40324 
	-4.368428 6.1665792 -45.761049 -6.9548233 -83.384158 136.40324 -41.004388 -6.9324204 
	-41.004388 -6.9324204 -83.384158 136.40324 -45.760995 -6.9543632 -4.3684267 6.16615 
	-83.384158 136.40324 -41.004388 -6.9324204 -4.3684267 6.16615 -45.760995 -6.9543632 
5.8e+010 -45.752149 6.9875903 -4.3740834 -6.2476747 -40.993996 7.0026782 -85.418603 138.51599 
	-4.3740834 -6.2476747 -45.752149 6.9875903 -85.418603 138.51599 -40.993996 7.0026782 
	-40.993996 7.0026782 -85.418603 138.51599 -45.752046 6.9880562 -4.3740819 -6.248104 
	-85.418603 138.51599 -40.993996 7.0026782 -4.3740819 -6.248104 -45.752046 6.9880562 
5.81e+010 -44.561135 17.299949 -4.3798815 -18.661958 -39.801952 17.306582 -85.373202 148.35821 
	-4.3798815 -18.661958 -44.561135 17.299949 -85.373202 148.35821 -39.801952 17.306582 
	-39.801952 17.306582 -85.373202 148.35821 -44.561053 17.300065 -4.3798801 -18.66214 
	-85.373202 148.35821 -39.801952 17.306582 -4.3798801 -18.66214 -44.561053 17.300065 
5.82e+010 -42.999128 21.217827 -4.385795 -31.075398 -38.239031 21.217519 -83.316249 149.90231 
	-4.385795 -31.075398 -42.999128 21.217827 -83.316249 149.90231 -38.239031 21.217519 
	-38.239031 21.217519 -83.316249 149.90231 -42.998996 21.217881 -4.3857937 -31.075827 
	-83.316249 149.90231 -38.239031 21.217519 -4.3857937 -31.075827 -42.998996 21.217881 
5.83e+010 -41.599037 20.335295 -4.3917753 -43.487973 -36.837978 20.32867 -81.076347 140.82321 
	-4.3917753 -43.487973 -41.599037 20.335295 -81.076347 140.82321 -36.837978 20.32867 
	-36.837978 20.32867 -81.076347 140.82321 -41.598914 20.335218 -4.3917739 -43.488402 
	-81.076347 140.82321 -36.837978 20.32867 -4.3917739 -43.488402 -41.598914 20.335218 
5.84e+010 -40.522957 16.570272 -4.3977609 -55.899823 -35.760895 16.557176 -79.302022 125.75683 
	-4.3977609 -55.899823 -40.522957 16.570272 -79.302022 125.75683 -35.760895 16.557176 
	-35.760895 16.557176 -79.302022 125.75683 -40.522882 16.570213 -4.3977594 -55.900006 
	-79.302022 125.75683 -35.760895 16.557176 -4.3977594 -55.900006 -40.522882 16.570213 
5.85e+010 -39.792174 11.17843 -4.4036894 -68.311084 -35.029073 11.158249 -78.028925 107.80892 
	-4.4036894 -68.311084 -39.792174 11.17843 -78.028925 107.80892 -35.029073 11.158249 
	-35.029073 11.158249 -78.028925 107.80892 -39.792075 11.178233 -4.4036881 -68.311513 
	-78.028925 107.80892 -35.029073 11.158249 -4.4036881 -68.311513 -39.792075 11.178233 
5.86e+010 -39.395032 4.9363337 -4.4095086 -80.721125 -34.630978 4.9086791 -77.19888 88.396153 
	-4.4095086 -80.721125 -39.395032 4.9363337 -77.19888 88.396153 -34.630978 4.9086791 
	-34.630978 4.9086791 -77.19888 88.396153 -39.394945 4.9361167 -4.4095073 -80.721555 
	-77.19888 88.396153 -34.630978 4.9086791 -4.4095073 -80.721555 -39.394945 4.9361167 
5.87e+010 -39.319865 -1.6254134 -4.4151867 -93.130863 -34.55497 -1.6606704 -76.76123 68.234257 
	-4.4151867 -93.130863 -39.319865 -1.6254134 -76.76123 68.234257 -34.55497 -1.6606704 
	-34.55497 -1.6606704 -76.76123 68.234257 -39.319789 -1.6256366 -4.4151854 -93.131293 
	-76.76123 68.234257 -34.55497 -1.6606704 -4.4151854 -93.131293 -39.319789 -1.6256366 
5.88e+010 -39.563606 -8.0651098 -4.4207175 -105.54096 -34.79801 -8.1076137 -76.685389 47.760723 
	-4.4207175 -105.54096 -39.563606 -8.0651098 -76.685389 47.760723 -34.79801 -8.1076137 
	-34.79801 -8.1076137 -76.685389 47.760723 -39.563551 -8.0651991 -4.4207162 -105.54114 
	-76.685389 47.760723 -34.79801 -8.1076137 -4.4207162 -105.54114 -39.563551 -8.0651991 
5.89e+010 -40.132704 -13.910835 -4.4261218 -117.95131 -35.366494 -13.959906 -76.968399 27.407657 
	-4.4261218 -117.95131 -40.132704 -13.910835 -76.968399 27.407657 -35.366494 -13.959906 
	-35.366494 -13.959906 -76.968399 27.407657 -40.132655 -13.910913 -4.4261203 -117.95149 
	-76.968399 27.407657 -35.366494 -13.959906 -4.4261203 -117.95149 -40.132655 -13.910913 
5.9e+010 -41.038584 -18.530932 -4.4314429 -130.36247 -36.271803 -18.585434 -77.629035 7.5936889 
	-4.4314429 -130.36247 -41.038584 -18.530932 -77.629035 7.5936889 -36.271803 -18.585434 
	-36.271803 -18.585434 -77.629035 7.5936889 -41.038539 -18.530987 -4.4314416 -130.36265 
	-77.629035 7.5936889 -36.271803 -18.585434 -4.4314416 -130.36265 -41.038539 -18.530987 
5.91e+010 -42.279483 -20.945771 -4.4367397 -142.77457 -37.512081 -21.004332 -78.698771 -11.146771 
	-4.4367397 -142.77457 -42.279483 -20.945771 -78.698771 -11.146771 -37.512081 -21.004332 
	-37.512081 -21.004332 -78.698771 -11.146771 -42.279444 -20.945786 -4.4367384 -142.77475 
	-78.698771 -11.146771 -37.512081 -21.004332 -4.4367384 -142.77475 -42.279444 -20.945786 
5.92e+010 -43.778108 -19.594566 -4.4420749 -155.18761 -39.009883 -19.65592 -80.235855 -27.747523 
	-4.4420749 -155.18761 -43.778108 -19.594566 -80.235855 -27.747523 -39.009883 -19.65592 
	-39.009883 -19.65592 -80.235855 -27.747523 -43.778071 -19.594512 -4.4420735 -155.18779 
	-80.235855 -27.747523 -39.009883 -19.65592 -4.4420735 -155.18779 -43.778071 -19.594512 
5.93e+010 -45.212979 -12.536804 -4.4475036 -167.60112 -40.443543 -12.600775 -82.27147 -40.107312 
	-4.4475036 -167.60112 -45.212979 -12.536804 -82.27147 -40.107312 -40.443543 -12.600775 
	-40.443543 -12.600775 -82.27147 -40.107312 -45.212944 -12.536451 -4.4475021 -167.60155 
	-82.27147 -40.107312 -40.443543 -12.600775 -4.4475021 -167.60155 -45.212944 -12.536451 
5.94e+010 -45.857846 0.085160264 -4.4530628 179.98472 -41.086908 0.015877644 -84.541867 -44.237127 
	-4.4530628 179.98472 -45.857846 0.085160264 -84.541867 -44.237127 -41.086908 0.015877644 
	-41.086908 0.015877644 -84.541867 -44.237127 -45.85777 0.085646286 -4.4530615 179.98429 
	-84.541867 -44.237127 -41.086908 0.015877644 -4.4530615 179.98429 -45.85777 0.085646286 
5.95e+010 -45.203904 12.655291 -4.4587662 167.57056 -40.431732 12.577898 -85.753472 -37.28818 
	-4.4587662 167.57056 -45.203904 12.655291 -85.753472 -37.28818 -40.431732 12.577898 
	-40.431732 12.577898 -85.753472 -37.28818 -45.203787 12.655656 -4.4587647 167.57014 
	-85.753472 -37.28818 -40.431732 12.577898 -4.4587647 167.57014 -45.203787 12.655656 
5.96e+010 -43.772597 19.629129 -4.4645994 155.15651 -38.99953 19.54415 -84.556156 -30.258534 
	-4.4645994 155.15651 -43.772597 19.629129 -84.556156 -30.258534 -38.99953 19.54415 
	-38.99953 19.54415 -84.556156 -30.258534 -43.772483 19.629179 -4.4645979 155.15639 
	-84.556156 -30.258534 -38.99953 19.54415 -4.4645979 155.15639 -43.772483 19.629179 
5.97e+010 -42.285397 20.931516 -4.4705241 142.74349 -37.511467 20.84025 -82.305747 -34.431164 
	-4.4705241 142.74349 -42.285397 20.931516 -82.305747 -34.431164 -37.511467 20.84025 
	-37.511467 20.84025 -82.305747 -34.431164 -42.285329 20.931537 -4.4705227 142.74362 
	-82.305747 -34.431164 -37.511467 20.84025 -4.4705227 142.74362 -42.285329 20.931537 
5.98e+010 -41.057949 18.508136 -4.476485 130.33165 -36.283031 18.41074 -80.298328 -46.812331 
	-4.476485 130.33165 -41.057949 18.508136 -80.298328 -46.812331 -36.283031 18.41074 
	-36.283031 18.41074 -80.298328 -46.812331 -41.057839 18.50811 -4.4764839 130.33153 
	-80.298328 -46.812331 -36.283031 18.41074 -4.4764839 130.33153 -41.057839 18.50811 
5.99e+010 -40.165105 13.910653 -4.4824205 117.92049 -35.389196 13.806716 -78.787016 -63.448953 
	-4.4824205 117.92049 -40.165105 13.910653 -78.787016 -63.448953 -35.389196 13.806716 
	-35.389196 13.806716 -78.787016 -63.448953 -40.164997 13.910611 -4.4824191 117.92037 
	-78.787016 -63.448953 -35.389196 13.806716 -4.4824191 117.92037 -40.164997 13.910611 
6e+010 -39.607775 8.1128924 -4.4882729 105.50988 -34.830932 8.0018894 -77.741735 -82.161047 
	-4.4882729 105.50988 -39.607775 8.1128924 -77.741735 -82.161047 -34.830932 8.0018894 
	-34.830932 8.0018894 -77.741735 -82.161047 -39.60771 8.1128074 -4.4882716 105.50969 
	-77.741735 -82.161047 -34.830932 8.0018894 -4.4882716 105.50969 -39.60771 8.1128074 
6.01e+010 -39.374038 1.7453649 -4.4939995 93.100242 -34.596319 1.6269526 -77.107918 -101.9348 
	-4.4939995 93.100242 -39.374038 1.7453649 -77.107918 -101.9348 -34.596319 1.6269526 
	-34.596319 1.6269526 -77.107918 -101.9348 -39.373957 1.7451457 -4.4939982 93.099813 
	-77.107918 -101.9348 -34.596319 1.6269526 -4.4939982 93.099813 -39.373957 1.7451457 
6.02e+010 -39.456606 -4.7194083 -4.4995816 80.690458 -34.678152 -4.8450219 -76.847308 -122.20597 
	-4.4995816 80.690458 -39.456606 -4.7194083 -76.847308 -122.20597 -34.678152 -4.8450219 
	-34.678152 -4.8450219 -76.847308 -122.20597 -39.45655 -4.7194995 -4.4995802 80.690275 
	-76.847308 -122.20597 -34.678152 -4.8450219 -4.4995802 80.690275 -39.45655 -4.7194995 
6.03e+010 -39.857158 -10.836295 -4.5050261 68.280613 -35.078071 -10.968713 -76.943592 -142.56432 
	-4.5050261 68.280613 -39.857158 -10.836295 -76.943592 -142.56432 -35.078071 -10.968713 
	-35.078071 -10.968713 -76.943592 -142.56432 -39.857099 -10.836494 -4.5050246 68.280184 
	-76.943592 -142.56432 -35.078071 -10.968713 -4.5050246 68.280184 -39.857099 -10.836494 
6.04e+010 -40.584627 -16.071575 -4.5103653 55.869868 -35.804989 -16.209748 -77.401394 -162.63029 
	-4.5103653 55.869868 -40.584627 -16.071575 -77.401394 -162.63029 -35.804989 -16.209748 
	-35.804989 -16.209748 -77.401394 -162.63029 -40.584581 -16.071643 -4.5103638 55.869685 
	-77.401394 -162.63029 -35.804989 -16.209748 -4.5103638 55.869685 -40.584581 -16.071643 
6.05e+010 -41.645623 -19.652049 -4.5156505 43.458177 -36.865396 -19.79477 -78.24445 178.05991 
	-4.5156505 43.458177 -41.645623 -19.652049 -78.24445 178.05991 -36.865396 -19.79477 
	-36.865396 -19.79477 -78.24445 178.05991 -41.645535 -19.652074 -4.515649 43.458059 
	-78.24445 178.05991 -36.865396 -19.79477 -4.515649 43.458059 -41.645535 -19.652074 
6.06e+010 -43.009683 -20.354179 -4.5209422 31.045856 -38.228771 -20.500107 -79.523748 160.30342 
	-4.5209422 31.045856 -43.009683 -20.354179 -79.523748 160.30342 -38.228771 -20.500107 
	-38.228771 -20.500107 -79.523748 160.30342 -43.009598 -20.354169 -4.5209409 31.045737 
	-79.523748 160.30342 -38.228771 -20.500107 -4.5209409 31.045737 -43.009598 -20.354169 
6.07e+010 -44.504536 -16.389403 -4.5263002 18.632455 -39.722651 -16.537796 -81.28288 145.50082 
	-4.5263002 18.632455 -44.504536 -16.389403 -81.28288 145.50082 -39.722651 -16.537796 
	-39.722651 -16.537796 -81.28288 145.50082 -44.504442 -16.389478 -4.5262987 18.632583 
	-81.28288 145.50082 -39.722651 -16.537796 -4.5262987 18.632583 -44.504442 -16.389478 
6.08e+010 -45.615336 -6.4466733 -4.5317707 6.2187334 -40.832103 -6.5986029 -83.466352 136.55778 
	-4.5317707 6.2187334 -45.615336 -6.4466733 -83.466352 136.55778 -40.832103 -6.5986029 
	-40.832103 -6.5986029 -83.466352 136.55778 -45.615244 -6.446553 -4.5317693 6.218615 
	-83.466352 136.55778 -40.832103 -6.5986029 -4.5317693 6.218615 -45.615244 -6.446553 
6.09e+010 -45.612536 6.7184426 -4.5373791 -6.1951864 -40.827926 6.5596592 -85.420415 137.81496 
	-4.5373791 -6.1951864 -45.612536 6.7184426 -85.420415 137.81496 -40.827926 6.5596592 
	-40.827926 6.5596592 -85.420415 137.81496 -45.612433 6.7185688 -4.5373778 -6.1953048 
	-85.420415 137.81496 -40.827926 6.5596592 -4.5373778 -6.1953048 -45.612433 6.7185688 
6.1e+010 -44.502148 16.607002 -4.543125 -18.6089 -39.716546 16.440394 -85.467129 146.42141 
	-4.543125 -18.6089 -44.502148 16.607002 -85.467129 146.42141 -39.716546 16.440394 
	-39.716546 16.440394 -85.467129 146.42141 -44.502037 16.607079 -4.5431237 -18.609019 
	-85.467129 146.42141 -39.716546 16.440394 -4.5431237 -18.609019 -44.502037 16.607079 
6.11e+010 -43.015625 20.527711 -4.5489824 -31.02229 -38.229223 20.354489 -83.572488 148.00536 
	-4.5489824 -31.02229 -43.015625 20.527711 -83.572488 148.00536 -38.229223 20.354489 
	-38.229223 20.354489 -83.572488 148.00536 -43.01556 20.527709 -4.548981 -31.022162 
	-83.572488 148.00536 -38.229223 20.354489 -4.548981 -31.022162 -43.01556 20.527709 
6.12e+010 -41.663035 19.813856 -4.5549044 -43.434603 -36.875741 19.634731 -81.407836 139.28929 
	-4.5549044 -43.434603 -41.663035 19.813856 -81.407836 139.28929 -36.875741 19.634731 
	-36.875741 19.634731 -81.407836 139.28929 -41.662967 19.813891 -4.5549029 -43.434475 
	-81.407836 139.28929 -36.875741 19.634731 -4.5549029 -43.434475 -41.662967 19.813891 
6.13e+010 -40.613803 16.250302 -4.5608318 -55.845981 -35.825554 16.065091 -79.657495 124.66736 
	-4.5608318 -55.845981 -40.613803 16.250302 -79.657495 124.66736 -35.825554 16.065091 
	-35.825554 16.065091 -79.657495 124.66736 -40.613731 16.250356 -4.5608304 -55.845853 
	-79.657495 124.66736 -35.825554 16.065091 -4.5608304 -55.845853 -40.613731 16.250356 
6.14e+010 -39.897177 11.055423 -4.5667047 -68.256493 -35.10797 10.863569 -78.388832 106.96488 
	-4.5667047 -68.256493 -39.897177 11.055423 -78.388832 106.96488 -35.10797 10.863569 
	-35.10797 10.863569 -78.388832 106.96488 -39.897073 11.055375 -4.5667034 -68.256611 
	-78.388832 106.96488 -35.10797 10.863569 -4.5667034 -68.256611 -39.897073 11.055375 
6.15e+010 -39.506013 5.0002139 -4.5724732 -80.666365 -34.715925 4.8013515 -77.55412 87.768074 
	-4.5724732 -80.666365 -39.506013 5.0002139 -77.55412 87.768074 -34.715925 4.8013515 
	-34.715925 4.8013515 -77.55412 87.768074 -39.505913 5.0001583 -4.5724719 -80.666484 
	-77.55412 87.768074 -34.715925 4.8013515 -4.5724719 -80.666484 -39.505913 5.0001583 
6.16e+010 -39.430698 -1.3808773 -4.5781063 -93.075943 -34.639836 -1.5868015 -77.106177 67.775837 
	-4.5781063 -93.075943 -39.430698 -1.3808773 -77.106177 67.775837 -34.639836 -1.5868015 
	-34.639836 -1.5868015 -77.106177 67.775837 -39.430617 -1.3808078 -4.5781049 -93.075815 
	-77.106177 67.775837 -34.639836 -1.5868015 -4.5781049 -93.075815 -39.430617 -1.3808078 
6.17e+010 -39.668526 -7.6410449 -4.5835977 -105.48618 -34.877002 -7.8538047 -77.017597 47.478083 
	-4.5835977 -105.48618 -39.668526 -7.6410449 -77.017597 47.478083 -34.877002 -7.8538047 
	-34.877002 -7.8538047 -77.017597 47.478083 -39.668442 -7.6409798 -4.5835964 -105.48605 
	-77.017597 47.478083 -34.877002 -7.8538047 -4.5835964 -105.48605 -39.668442 -7.6409798 
6.18e+010 -40.224714 -13.304105 -4.5889671 -117.89634 -35.432628 -13.522976 -77.285809 27.304448 
	-4.5889671 -117.89634 -40.224714 -13.304105 -77.285809 27.304448 -35.432628 -13.522976 
	-35.432628 -13.522976 -77.285809 27.304448 -40.224627 -13.304051 -4.5889656 -117.89622 
	-77.285809 27.304448 -35.432628 -13.522976 -4.5889656 -117.89622 -40.224627 -13.304051 
6.19e+010 -41.107618 -17.740362 -4.5942563 -130.30703 -36.315003 -17.964297 -77.921332 7.621597 
	-4.5942563 -130.30703 -41.107618 -17.740362 -77.921332 7.621597 -36.315003 -17.964297 
	-36.315003 -17.964297 -77.921332 7.621597 -41.107531 -17.740398 -4.5942549 -130.30715 
	-77.921332 7.621597 -36.315003 -17.964297 -4.5942549 -130.30715 -41.107531 -17.740398 
6.2e+010 -42.309721 -19.991825 -4.5995216 -142.71888 -37.516532 -20.219455 -78.957618 -10.980632 
	-4.5995216 -142.71888 -42.309721 -19.991825 -78.957618 -10.980632 -37.516532 -20.219455 
	-37.516532 -20.219455 -78.957618 -10.980632 -42.309637 -19.991835 -4.5995203 -142.719 
	-78.957618 -10.980632 -37.516532 -20.219455 -4.5995203 -142.719 -42.309637 -19.991835 
6.21e+010 -43.746409 -18.577958 -4.6048232 -155.13162 -38.952445 -18.808118 -80.444039 -27.473767 
	-4.6048232 -155.13162 -43.746409 -18.577958 -80.444039 -27.473767 -38.952445 -18.808118 
	-38.952445 -18.808118 -80.444039 -27.473767 -43.746327 -18.577925 -4.6048219 -155.13174 
	-80.444039 -27.473767 -38.952445 -18.808118 -4.6048219 -155.13174 -43.746327 -18.577925 
6.22e+010 -45.102054 -11.75697 -4.6102144 -167.54506 -40.306943 -11.989777 -82.399955 -39.857194 
	-4.6102144 -167.54506 -45.102054 -11.75697 -82.399955 -39.857194 -40.306943 -11.989777 
	-40.306943 -11.989777 -82.399955 -39.857194 -45.101964 -11.757074 -4.6102131 -167.54493 
	-82.399955 -39.857194 -40.306943 -11.989777 -4.6102131 -167.54493 -45.101964 -11.757074 
6.23e+010 -45.706605 0.19273027 -4.6157315 -179.95864 -40.910094 -0.045020655 -84.568291 -44.454482 
	-4.6157315 -179.95864 -45.706605 0.19273027 -84.568291 -44.454482 -40.910094 -0.045020655 
	-40.910094 -0.045020655 -84.568291 -44.454482 -45.70651 0.19285868 -4.61573 -179.95876 
	-84.568291 -44.454482 -40.910094 -0.045020655 -4.61573 -179.95876 -45.70651 0.19285868 
6.24e+010 -45.103573 12.124993 -4.6213868 167.62753 -40.305916 11.879674 -85.76761 -38.751007 
	-4.6213868 167.62753 -45.103573 12.124993 -85.76761 -38.751007 -40.305916 11.879674 
	-40.305916 11.879674 -85.76761 -38.751007 -45.103468 12.125094 -4.6213855 167.62741 
	-85.76761 -38.751007 -40.305916 11.879674 -4.6213855 167.62741 -45.103468 12.125094 
6.25e+010 -43.754338 18.920117 -4.6271673 155.21409 -38.955862 18.667673 -84.73339 -32.379046 
	-4.6271673 155.21409 -43.754338 18.920117 -84.73339 -32.379046 -38.955862 18.667673 
	-38.955862 18.667673 -84.73339 -32.379046 -43.754275 18.920088 -4.627166 155.21422 
	-84.73339 -32.379046 -38.955862 18.667673 -4.627166 155.21422 -43.754275 18.920088 
6.26e+010 -42.327204 20.327492 -4.6330363 142.80161 -37.527886 20.069091 -82.603218 -36.240043 
	-4.6330363 142.80161 -42.327204 20.327492 -82.603218 -36.240043 -37.527886 20.069091 
	-37.527886 20.069091 -82.603218 -36.240043 -42.327096 20.327494 -4.633035 142.80149 
	-82.603218 -36.240043 -37.527886 20.069091 -4.633035 142.80149 -42.327096 20.327494 
6.27e+010 -41.135246 18.09218 -4.638941 130.38976 -36.335057 17.828024 -80.640989 -48.191514 
	-4.638941 130.38976 -41.135246 18.09218 -80.640989 -48.191514 -36.335057 17.828024 
	-36.335057 17.828024 -80.640989 -48.191514 -41.135178 18.092225 -4.6389395 130.38988 
	-80.640989 -48.191514 -36.335057 17.828024 -4.6389395 130.38988 -41.135178 18.092225 
6.28e+010 -40.261996 13.691914 -4.6448214 117.97906 -35.460866 13.421564 -79.141739 -64.472244 
	-4.6448214 117.97906 -40.261996 13.691914 -79.141739 -64.472244 -35.460866 13.421564 
	-35.460866 13.421564 -79.141739 -64.472244 -40.261893 13.691871 -4.6448199 117.97894 
	-79.141739 -64.472244 -35.460866 13.421564 -4.6448199 117.97894 -40.261893 13.691871 
6.29e+010 -39.714295 8.0832056 -4.6506222 105.56887 -34.912292 7.806291 -78.095857 -82.906201 
	-4.6506222 105.56887 -39.714295 8.0832056 -78.095857 -82.906201 -34.912292 7.806291 
	-34.912292 7.806291 -78.095857 -82.906201 -39.71422 8.0832725 -4.6506207 105.569 
	-78.095857 -82.906201 -34.912292 7.806291 -4.6506207 105.569 -39.71422 8.0832725 
6.3e+010 -39.483268 1.8965047 -4.6563023 93.159398 -34.680456 1.6126395 -77.45661 -102.43502 
	-4.6563023 93.159398 -39.483268 1.8965047 -77.45661 -102.43502 -34.680456 1.6126395 
	-34.680456 1.6126395 -77.45661 -102.43502 -39.483171 1.8964471 -4.6563009 93.15928 
	-77.45661 -102.43502 -34.680456 1.6126395 -4.6563009 93.15928 -39.483171 1.8964471 
6.31e+010 -39.562776 -4.3909742 -4.6618437 80.750024 -34.759272 -4.6816466 -77.186229 -122.52191 
	-4.6618437 80.750024 -39.562776 -4.3909742 -77.186229 -122.52191 -34.759272 -4.6816466 
	-34.759272 -4.6816466 -77.186229 -122.52191 -39.562682 -4.391032 -4.6618422 80.749906 
	-77.186229 -122.52191 -34.759272 -4.6816466 -4.6618422 80.749906 -39.562682 -4.391032 
6.32e+010 -39.954083 -10.330222 -4.6672528 68.339554 -35.150009 -10.627197 -77.267023 -142.74074 
	-4.6672528 68.339554 -39.954083 -10.330222 -77.267023 -142.74074 -35.150009 -10.627197 
	-35.150009 -10.627197 -77.267023 -142.74074 -39.953992 -10.330276 -4.6672514 68.339436 
	-77.267023 -142.74074 -35.150009 -10.627197 -4.6672514 68.339436 -39.953992 -10.330276 
6.33e+010 -40.66412 -15.385182 -4.67256 55.929262 -35.859532 -15.687547 -77.70676 -162.64839 
	-4.67256 55.929262 -40.66412 -15.385182 -77.70676 -162.64839 -35.859532 -15.687547 
	-35.859532 -15.687547 -77.70676 -162.64839 -40.664033 -15.385225 -4.6725587 55.929143 
	-77.70676 -162.64839 -35.859532 -15.687547 -4.6725587 55.929143 -40.664033 -15.385225 
6.34e+010 -41.695249 -18.79285 -4.6778149 43.518123 -36.890143 -19.099399 -78.522578 178.17958 
	-4.6778149 43.518123 -41.695249 -18.79285 -78.522578 178.17958 -36.890143 -19.099399 
	-36.890143 -19.099399 -78.522578 178.17958 -41.695165 -18.792875 -4.6778134 43.518005 
	-78.522578 178.17958 -36.890143 -19.099399 -4.6778134 43.518005 -41.695165 -18.792875 
6.35e+010 -43.01048 -19.37373 -4.6830759 31.106078 -38.204732 -19.683185 -79.762487 160.5497 
	-4.6830759 31.106078 -43.01048 -19.37373 -79.762487 160.5497 -38.204732 -19.683185 
	-38.204732 -19.683185 -79.762487 160.5497 -43.010399 -19.373722 -4.6830745 31.105959 
	-79.762487 160.5497 -38.204732 -19.683185 -4.6830745 31.105959 -43.010399 -19.373722 
6.36e+010 -44.434022 -15.470487 -4.6884 18.692983 -39.627367 -15.782135 -81.457652 145.79685 
	-4.6884 18.692983 -44.434022 -15.470487 -81.457652 145.79685 -39.627367 -15.782135 
	-39.627367 -15.782135 -81.457652 145.79685 -44.433941 -15.470427 -4.6883985 18.692865 
	-81.457652 145.79685 -39.627367 -15.782135 -4.6883985 18.692865 -44.433941 -15.470427 
6.37e+010 -45.477903 -5.983199 -4.693832 6.2795875 -40.669967 -6.2982453 -83.541545 136.63156 
	-4.693832 6.2795875 -45.477903 -5.983199 -83.541545 136.63156 -40.669967 -6.2982453 
	-40.669967 -6.2982453 -83.541545 136.63156 -45.477816 -5.9830857 -4.6938307 6.279469 
	-83.541545 136.63156 -40.669967 -6.2982453 -4.6938307 6.279469 -45.477816 -5.9830857 
6.38e+010 -45.481217 6.4664697 -4.6993968 -6.1340025 -40.671987 6.1449938 -85.414001 137.00359 
	-4.6993968 -6.1340025 -45.481217 6.4664697 -85.414001 137.00359 -40.671987 6.1449938 
	-40.671987 6.1449938 -85.414001 137.00359 -45.481119 6.4665885 -4.6993953 -6.1341209 
	-85.414001 137.00359 -40.671987 6.1449938 -4.6993953 -6.1341209 -45.481119 6.4665885 
6.39e+010 -44.44479 15.953524 -4.705094 -18.547398 -39.634622 15.624649 -85.549862 144.45657 
	-4.705094 -18.547398 -44.44479 15.953524 -85.549862 144.45657 -39.634622 15.624649 
	-39.634622 15.624649 -85.549862 144.45657 -44.444684 15.953597 -4.7050925 -18.547516 
	-85.549862 144.45657 -39.634622 15.624649 -4.7050925 -18.547516 -44.444684 15.953597 
6.4e+010 -43.029755 19.86595 -4.7108988 -30.960246 -38.21881 19.530771 -83.81508 146.00282 
	-4.7108988 -30.960246 -43.029755 19.86595 -83.81508 146.00282 -38.21881 19.530771 
	-38.21881 19.530771 -83.81508 146.00282 -43.029648 19.865973 -4.7108973 -30.960365 
	-83.81508 146.00282 -38.21881 19.530771 -4.7108973 -30.960365 -43.029648 19.865973 
6.41e+010 -41.72321 19.307866 -4.7167659 -43.372297 -36.911443 18.967043 -81.728085 137.75532 
	-4.7167659 -43.372297 -41.72321 19.307866 -81.728085 137.75532 -36.911443 18.967043 
	-36.911443 18.967043 -81.728085 137.75532 -41.723104 19.307854 -4.7167646 -43.372416 
	-81.728085 137.75532 -36.911443 18.967043 -4.7167646 -43.372416 -41.723104 19.307854 
6.42e+010 -40.700324 15.936777 -4.722639 -55.78345 -35.887678 15.590181 -80.003976 123.46332 
	-4.722639 -55.78345 -40.700324 15.936777 -80.003976 123.46332 -35.887678 15.590181 
	-35.887678 15.590181 -80.003976 123.46332 -40.700222 15.936742 -4.7226376 -55.783569 
	-80.003976 123.46332 -35.887678 15.590181 -4.7226376 -55.783569 -40.700222 15.936742 
6.43e+010 -39.997649 10.932442 -4.7284604 -68.193768 -35.184126 10.579632 -78.740047 106.07208 
	-4.7284604 -68.193768 -39.997649 10.932442 -78.740047 106.07208 -35.184126 10.579632 
	-35.184126 10.579632 -78.740047 106.07208 -39.99755 10.932394 -4.7284589 -68.193886 
	-78.740047 106.07208 -35.184126 10.579632 -4.7284589 -68.193886 -39.99755 10.932394 
6.44e+010 -39.612344 5.0592834 -4.7341817 -80.603468 -34.798007 4.6998804 -77.90088 87.104239 
	-4.7341817 -80.603468 -39.612344 5.0592834 -77.90088 87.104239 -34.798007 4.6998804 
	-34.798007 4.6998804 -77.90088 87.104239 -39.612247 5.0592281 -4.7341802 -80.603586 
	-77.90088 87.104239 -34.798007 4.6998804 -4.7341802 -80.603586 -39.612247 5.0592281 
6.45e+010 -39.536749 -1.1456682 -4.7397725 -93.012882 -34.7217 -1.5117018 -77.443313 67.300763 
	-4.7397725 -93.012882 -39.536749 -1.1456682 -77.443313 67.300763 -34.7217 -1.5117018 
	-34.7217 -1.5117018 -77.443313 67.300763 -39.536671 -1.1456015 -4.7397712 -93.012753 
	-77.443313 67.300763 -34.7217 -1.5117018 -4.7397712 -93.012753 -39.536671 -1.1456015 
6.46e+010 -39.768473 -7.230828 -4.7452271 -105.42214 -34.952814 -7.6033882 -77.345791 47.227788 
	-4.7452271 -105.42214 -39.768473 -7.230828 -77.345791 47.227788 -34.952814 -7.6033882 
	-34.952814 -7.6033882 -77.345791 47.227788 -39.768414 -7.2310316 -4.7452256 -105.42257 
	-77.345791 47.227788 -34.952814 -7.6033882 -4.7452256 -105.42257 -39.768414 -7.2310316 
6.47e+010 -40.311609 -12.717844 -4.7505642 -117.83212 -35.495445 -13.096084 -77.594362 27.175389 
	-4.7505642 -117.83212 -40.311609 -12.717844 -77.594362 27.175389 -35.495445 -13.096084 
	-35.495445 -13.096084 -77.594362 27.175389 -40.31156 -12.718019 -4.7505628 -117.83254 
	-77.594362 27.175389 -35.495445 -13.096084 -4.7505628 -117.83254 -40.31156 -12.718019 
6.48e+010 -41.171609 -16.97995 -4.7558238 -130.24282 -36.354975 -17.362801 -78.204788 7.6232513 
	-4.7558238 -130.24282 -41.171609 -16.97995 -78.204788 7.6232513 -36.354975 -17.362801 
	-36.354975 -17.362801 -78.204788 7.6232513 -41.171572 -16.980071 -4.7558223 -130.24325 
	-78.204788 7.6232513 -36.354975 -17.362801 -4.7558223 -130.24325 -41.171572 -16.980071 
6.49e+010 -42.33577 -19.081917 -4.7610601 -142.65497 -37.518585 -19.468094 -79.210654 -10.828789 
	-4.7610601 -142.65497 -42.33577 -19.081917 -79.210654 -10.828789 -37.518585 -19.468094 
	-37.518585 -19.468094 -79.210654 -10.828789 -42.33569 -19.081927 -4.7610589 -142.65509 
	-79.210654 -10.828789 -37.518585 -19.468094 -4.7610589 -142.65509 -42.33569 -19.081927 
6.5e+010 -43.713309 -17.621642 -4.7663308 -155.06717 -38.895373 -18.010116 -80.652767 -27.196219 
	-4.7663308 -155.06717 -43.713309 -17.621642 -80.652767 -27.196219 -38.895373 -18.010116 
	-38.895373 -18.010116 -80.652767 -27.196219 -43.71323 -17.621612 -4.7663295 -155.06729 
	-80.652767 -27.196219 -38.895373 -18.010116 -4.7663295 -155.06729 -43.71323 -17.621612 
6.51e+010 -44.995886 -11.037292 -4.7716875 -167.4803 -40.176874 -11.428161 -82.537832 -39.583688 
	-4.7716875 -167.4803 -44.995886 -11.037292 -82.537832 -39.583688 -40.176874 -11.428161 
	-40.176874 -11.428161 -82.537832 -39.583688 -44.995804 -11.037207 -4.7716861 -167.48042 
	-82.537832 -39.583688 -40.176874 -11.428161 -4.7716861 -167.48042 -44.995804 -11.037207 
6.52e+010 -45.564654 0.28807351 -4.777165 -179.89355 -40.744317 -0.10755442 -84.612777 -44.598404 
	-4.777165 -179.89355 -45.564654 0.28807351 -84.612777 -44.598404 -40.744317 -0.10755442 
	-40.744317 -0.10755442 -84.612777 -44.598404 -45.564563 0.28819326 -4.7771635 -179.89367 
	-84.612777 -44.598404 -40.744317 -0.10755442 -4.7771635 -179.89367 -45.564563 0.28819326 
6.53e+010 -45.008099 11.628425 -4.7827753 167.69294 -40.186679 11.225682 -85.794324 -40.010587 
	-4.7827753 167.69294 -45.008099 11.628425 -85.794324 -40.010587 -40.186679 11.225682 
	-40.186679 11.225682 -85.794324 -40.010587 -45.007998 11.628521 -4.782774 167.69283 
	-85.794324 -40.010587 -40.186679 11.225682 -4.782774 167.69283 -45.007998 11.628521 
6.54e+010 -43.735336 18.2455 -4.7885066 155.27981 -38.913144 17.835979 -84.900139 -34.37715 
	-4.7885066 155.27981 -43.735336 18.2455 -84.900139 -34.37715 -38.913144 17.835979 
	-38.913144 17.835979 -84.900139 -34.37715 -43.735276 18.245469 -4.7885051 155.27994 
	-84.900139 -34.37715 -38.913144 17.835979 -4.7885051 155.27994 -43.735276 18.245469 
6.55e+010 -42.365763 19.744535 -4.7943235 142.8676 -37.542788 19.329328 -82.887884 -37.991651 
	-4.7943235 142.8676 -42.365763 19.744535 -82.887884 -37.991651 -37.542788 19.329328 
	-37.542788 19.329328 -82.887884 -37.991651 -42.365659 19.744538 -4.794322 142.86748 
	-82.887884 -37.991651 -37.542788 19.329328 -4.794322 142.86748 -42.365659 19.744538 
6.56e+010 -41.208575 17.686647 -4.8001751 130.45624 -36.384755 17.265907 -80.973312 -49.491039 
	-4.8001751 130.45624 -41.208575 17.686647 -80.973312 -49.491039 -36.384755 17.265907 
	-36.384755 17.265907 -80.973312 -49.491039 -41.208468 17.686539 -4.8001737 130.45581 
	-80.973312 -49.491039 -36.384755 17.265907 -4.8001737 130.45581 -41.208468 17.686539 
6.57e+010 -40.354584 13.476176 -4.8060037 118.04551 -35.529923 13.049603 -79.488559 -65.427621 
	-4.8060037 118.04551 -40.354584 13.476176 -79.488559 -65.427621 -35.529923 13.049603 
	-35.529923 13.049603 -79.488559 -65.427621 -40.354488 13.476011 -4.8060024 118.04508 
	-79.488559 -65.427621 -35.529923 13.049603 -4.8060024 118.04508 -40.354488 13.476011 
6.58e+010 -39.816384 8.051229 -4.8117564 105.63575 -34.990898 7.6184054 -78.443863 -83.598217 
	-4.8117564 105.63575 -39.816384 8.051229 -78.443863 -83.598217 -34.990898 7.6184054 
	-34.990898 7.6184054 -78.443863 -83.598217 -39.816299 8.0510317 -4.811755 105.63532 
	-78.443863 -83.598217 -34.990898 7.6184054 -4.811755 105.63532 -39.816299 8.0510317 
6.59e+010 -39.587937 2.0407504 -4.8173934 93.226201 -34.761728 1.6014935 -77.797056 -102.96976 
	-4.8173934 93.226201 -39.587937 2.0407504 -77.797056 -102.96976 -34.761728 1.6014935 
	-34.761728 1.6014935 -77.797056 -102.96976 -39.587882 2.0406624 -4.817392 93.226018 
	-77.797056 -102.96976 -34.761728 1.6014935 -4.817392 93.226018 -39.587882 2.0406624 
6.6e+010 -39.664246 -4.0741566 -4.8228969 80.816995 -34.837404 -4.5198682 -77.514899 -122.89754 
	-4.8228969 80.816995 -39.664246 -4.0741566 -77.514899 -122.89754 -34.837404 -4.5198682 
	-34.837404 -4.5198682 -77.514899 -122.89754 -39.664183 -4.074365 -4.8228954 80.816566 
	-77.514899 -122.89754 -34.837404 -4.5198682 -4.8228954 80.816566 -39.664183 -4.074365 
6.61e+010 -40.046154 -9.8405919 -4.8282726 68.407511 -35.218781 -10.292188 -77.582881 -142.93364 
	-4.8282726 68.407511 -40.046154 -9.8405919 -77.582881 -142.93364 -35.218781 -10.292188 
	-35.218781 -10.292188 -77.582881 -142.93364 -40.046101 -9.8407807 -4.8282713 68.407082 
	-77.582881 -142.93364 -35.218781 -10.292188 -4.8282713 68.407082 -40.046101 -9.8407807 
6.62e+010 -40.738711 -14.723036 -4.8335503 55.997426 -35.910872 -15.179627 -78.002928 -162.69668 
	-4.8335503 55.997426 -40.738711 -14.723036 -78.002928 -162.69668 -35.910872 -15.179627 
	-35.910872 -15.179627 -78.002928 -162.69668 -40.73867 -14.723185 -4.8335488 55.996997 
	-78.002928 -162.69668 -35.910872 -15.179627 -4.8335488 55.996997 -40.73867 -14.723185 
6.63e+010 -41.740388 -17.969159 -4.8387774 43.586529 -36.912073 -18.429571 -78.791537 178.26777 
	-4.8387774 43.586529 -41.740388 -17.969159 -78.791537 178.26777 -36.912073 -18.429571 
	-36.912073 -18.429571 -78.791537 178.26777 -41.740358 -17.969236 -4.8387759 43.586099 
	-78.791537 178.26777 -36.912073 -18.429571 -4.8387759 43.586099 -41.740358 -17.969236 
6.64e+010 -43.008445 -18.443802 -4.8440097 31.173954 -38.179524 -18.906827 -79.984532 160.71466 
	-4.8440097 31.173954 -43.008445 -18.443802 -79.984532 160.71466 -38.179524 -18.906827 
	-38.179524 -18.906827 -79.984532 160.71466 -43.008368 -18.443793 -4.8440084 31.173836 
	-79.984532 160.71466 -38.179524 -18.906827 -4.8440084 31.173836 -43.008368 -18.443793 
6.65e+010 -44.364991 -14.612885 -4.8493023 18.76141 -39.535191 -15.077936 -81.631522 146.07669 
	-4.8493023 18.76141 -44.364991 -14.612885 -81.631522 146.07669 -39.535191 -15.077936 
	-39.535191 -15.077936 -81.631522 146.07669 -44.364913 -14.612829 -4.8493009 18.761292 
	-81.631522 146.07669 -39.535191 -15.077936 -4.8493009 18.761292 -44.364913 -14.612829 
6.66e+010 -45.348181 -5.5583411 -4.8546987 6.3483363 -40.517177 -6.0264842 -83.640108 136.79819 
	-4.8546987 6.3483363 -45.348181 -5.5583411 -83.640108 136.79819 -40.517177 -6.0264842 
	-40.517177 -6.0264842 -83.640108 136.79819 -45.348133 -5.5579543 -4.8546972 6.3479069 
	-83.640108 136.79819 -40.517177 -6.0264842 -4.8546972 6.3479069 -45.348133 -5.5579543 
6.67e+010 -45.357491 6.2307923 -4.8602226 -6.0649279 -40.52526 5.7564969 -85.43145 136.37427 
	-4.8602226 -6.0649279 -45.357491 6.2307923 -85.43145 136.37427 -40.52526 5.7564969 
	-40.52526 5.7564969 -85.43145 136.37427 -45.357431 6.2309629 -4.8602211 -6.0651105 
	-85.43145 136.37427 -40.52526 5.7564969 -4.8602211 -6.0651105 -45.357431 6.2309629 
6.68e+010 -44.389097 15.336838 -4.8658742 -18.478008 -39.555975 14.855523 -85.640289 142.8458 
	-4.8658742 -18.478008 -44.389097 15.336838 -85.640289 142.8458 -39.555975 14.855523 
	-39.555975 14.855523 -85.640289 142.8458 -44.389026 15.336943 -4.8658727 -18.47819 
	-85.640289 142.8458 -39.555975 14.855523 -4.8658727 -18.47819 -44.389026 15.336943 
6.69e+010 -43.041676 19.231442 -4.8716293 -30.890564 -38.207825 18.744094 -84.046315 144.16472 
	-4.8716293 -30.890564 -43.041676 19.231442 -84.046315 144.16472 -38.207825 18.744094 
	-38.207825 18.744094 -84.046315 144.16472 -43.041603 19.231472 -4.8716279 -30.890747 
	-84.046315 144.16472 -38.207825 18.744094 -4.8716279 -30.890747 -43.041603 19.231472 
6.7e+010 -41.779771 18.816906 -4.8774454 -43.302355 -36.945157 18.32417 -82.037494 136.27127 
	-4.8774454 -43.302355 -41.779771 18.816906 -82.037494 136.27127 -36.945157 18.32417 
	-36.945157 18.32417 -82.037494 136.27127 -41.7797 18.816884 -4.8774439 -43.302537 
	-82.037494 136.27127 -36.945157 18.32417 -4.8774439 -43.302537 -41.7797 18.816884 
6.71e+010 -40.782785 15.629607 -4.8832677 -55.713281 -35.947356 15.1314 -80.341863 122.38117 
	-4.8832677 -55.713281 -40.782785 15.629607 -80.341863 122.38117 -35.947356 15.1314 
	-35.947356 15.1314 -80.341863 122.38117 -40.782719 15.629552 -4.8832662 -55.713463 
	-80.341863 122.38117 -35.947356 15.1314 -4.8832662 -55.713463 -40.782719 15.629552 
6.72e+010 -40.093898 10.809811 -4.8890405 -68.123402 -35.257656 10.305735 -79.084946 105.26472 
	-4.8890405 -68.123402 -40.093898 10.809811 -79.084946 105.26472 -35.257656 10.305735 
	-35.257656 10.305735 -79.084946 105.26472 -40.093836 10.809737 -4.889039 -68.123584 
	-79.084946 105.26472 -35.257656 10.305735 -4.889039 -68.123584 -40.093836 10.809737 
6.73e+010 -39.714344 5.1140004 -4.8947171 -80.532926 -34.877349 4.6037083 -78.243248 86.515484 
	-4.8947171 -80.532926 -39.714344 5.1140004 -78.243248 86.515484 -34.877349 4.6037083 
	-34.877349 4.6037083 -78.243248 86.515484 -39.714287 5.1139155 -4.8947156 -80.533109 
	-78.243248 86.515484 -34.877349 4.6037083 -4.8947156 -80.533109 -39.714287 5.1139155 
6.74e+010 -39.638359 -0.91919623 -4.900269 -92.942172 -34.800707 -1.4357894 -77.776948 66.879193 
	-4.900269 -92.942172 -39.638359 -0.91919623 -77.776948 66.879193 -34.800707 -1.4357894 
	-34.800707 -1.4357894 -77.776948 66.879193 -39.638306 -0.91928434 -4.9002675 -92.942355 
	-77.776948 66.879193 -34.800707 -1.4357894 -4.9002675 -92.942355 -39.638306 -0.91928434 
6.75e+010 -39.863882 -6.8345043 -4.9056894 -105.35101 -35.025654 -7.3572095 -77.666958 46.964268 
	-4.9056894 -105.35101 -39.863882 -6.8345043 -77.666958 46.964268 -35.025654 -7.3572095 
	-35.025654 -7.3572095 -77.666958 46.964268 -39.863816 -6.8348175 -4.9056879 -105.35169 
	-77.666958 46.964268 -35.025654 -7.3572095 -4.9056879 -105.35169 -39.863816 -6.8348175 
6.76e+010 -40.393911 -12.151746 -4.9109966 -117.76079 -35.555223 -12.679747 -77.898807 27.058799 
	-4.9109966 -117.76079 -40.393911 -12.151746 -77.898807 27.058799 -35.555223 -12.679747 
	-35.555223 -12.679747 -77.898807 27.058799 -40.393862 -12.152013 -4.910995 -117.76147 
	-77.898807 27.058799 -35.555223 -12.679747 -4.910995 -117.76147 -40.393862 -12.152013 
6.77e+010 -41.231172 -16.24846 -4.9162286 -130.17127 -36.392054 -16.780713 -78.486541 7.6453246 
	-4.9162286 -130.17127 -41.231172 -16.24846 -78.486541 7.6453246 -36.392054 -16.780713 
	-36.392054 -16.780713 -78.486541 7.6453246 -41.23114 -16.248642 -4.9162271 -130.17195 
	-78.486541 7.6453246 -36.392054 -16.780713 -4.9162271 -130.17195 -41.23114 -16.248642 
6.78e+010 -42.358135 -18.21342 -4.9214378 -142.5826 -37.518522 -18.748695 -79.461861 -10.669083 
	-4.9214378 -142.5826 -42.358135 -18.21342 -79.461861 -10.669083 -37.518522 -18.748695 
	-37.518522 -18.748695 -79.461861 -10.669083 -42.358118 -18.213455 -4.9214363 -142.58328 
	-79.461861 -10.669083 -37.518522 -18.748695 -4.9214363 -142.58328 -42.358118 -18.213455 
6.79e+010 -43.679253 -16.720845 -4.9266798 -154.99476 -38.838918 -17.258195 -80.856805 -26.942765 
	-4.9266798 -154.99476 -43.679253 -16.720845 -80.856805 -26.942765 -38.838918 -17.258195 
	-38.838918 -17.258195 -80.856805 -26.942765 -43.67922 -16.720796 -4.9266783 -154.99495 
	-80.856805 -26.942765 -38.838918 -17.258195 -4.9266783 -154.99495 -43.67922 -16.720796 
6.8e+010 -44.894337 -10.371015 -4.9320041 -167.40758 -40.052981 -10.910601 -82.663085 -39.398589 
	-4.9320041 -167.40758 -44.894337 -10.371015 -82.663085 -39.398589 -40.052981 -10.910601 
	-40.052981 -10.910601 -82.663085 -39.398589 -44.8943 -10.370887 -4.9320026 -167.40776 
	-82.663085 -39.398589 -40.052981 -10.910601 -4.9320026 -167.40776 -44.8943 -10.370887 
6.81e+010 -45.431191 0.3737605 -4.9374445 -179.82106 -40.588578 -0.17031333 -84.645854 -44.861233 
	-4.9374445 -179.82106 -45.431191 0.3737605 -84.645854 -44.861233 -40.588578 -0.17031333 
	-40.588578 -0.17031333 -84.645854 -44.861233 -45.43114 0.37393428 -4.937443 -179.82125 
	-84.645854 -44.861233 -40.588578 -0.17031333 -4.937443 -179.82125 -45.43114 0.37393428 
6.82e+010 -44.917132 11.163302 -4.9430132 167.76575 -40.07349 10.612506 -85.818117 -41.277281 
	-4.9430132 167.76575 -44.917132 11.163302 -85.818117 -41.277281 -40.07349 10.612506 
	-40.07349 10.612506 -85.818117 -41.277281 -44.917066 11.163441 -4.9430117 167.76557 
	-85.818117 -41.277281 -40.07349 10.612506 -4.9430117 167.76557 -44.917066 11.163441 
6.83e+010 -43.715806 17.603314 -4.9486982 155.35342 -38.87136 17.04615 -85.057586 -36.274687 
	-4.9486982 155.35342 -43.715806 17.603314 -85.057586 -36.274687 -38.87136 17.04615 
	-38.87136 17.04615 -85.057586 -36.274687 -43.715649 17.603531 -4.9486967 155.35274 
	-85.057586 -36.274687 -38.87136 17.04615 -4.9486967 155.35274 -43.715649 17.603531 
6.84e+010 -42.401395 19.18203 -4.9544658 142.94124 -37.556248 18.619292 -83.160628 -39.726889 
	-4.9544658 142.94124 -42.401395 19.18203 -83.160628 -39.726889 -37.556248 18.619292 
	-37.556248 18.619292 -83.160628 -39.726889 -42.401243 19.182014 -4.9544646 142.94056 
	-83.160628 -39.726889 -37.556248 18.619292 -4.9544646 142.94056 -42.401243 19.182014 
6.85e+010 -41.278107 17.291296 -4.9602675 130.52988 -36.432228 16.723333 -81.295939 -50.869669 
	-4.9602675 130.52988 -41.278107 17.291296 -81.295939 -50.869669 -36.432228 16.723333 
	-36.432228 16.723333 -81.295939 -50.869669 -41.27804 17.291256 -4.960266 130.52969 
	-81.295939 -50.869669 -36.432228 16.723333 -4.960266 130.52969 -41.27804 17.291256 
6.86e+010 -40.443155 13.263676 -4.9660479 118.11935 -35.596491 12.690205 -79.826468 -66.477222 
	-4.9660479 118.11935 -40.443155 13.263676 -79.826468 -66.477222 -35.596491 12.690205 
	-35.596491 12.690205 -79.826468 -66.477222 -40.443092 13.263611 -4.9660464 118.11917 
	-79.826468 -66.477222 -35.596491 12.690205 -4.9660464 118.11917 -40.443092 13.263611 
6.87e+010 -39.914337 8.017346 -4.9717554 105.71003 -35.066881 7.437871 -78.783554 -84.343367 
	-4.9717554 105.71003 -39.914337 8.017346 -78.783554 -84.343367 -35.066881 7.437871 
	-35.066881 7.437871 -78.783554 -84.343367 -39.914231 8.0170414 -4.9717538 105.70935 
	-78.783554 -84.343367 -35.066881 7.437871 -4.9717538 105.70935 -39.914231 8.0170414 
6.88e+010 -39.688407 2.1786759 -4.9773521 93.300339 -34.840263 1.5930749 -78.131295 -103.49951 
	-4.9773521 93.300339 -39.688407 2.1786759 -78.131295 -103.49951 -34.840263 1.5930749 
	-34.840263 1.5930749 -78.131295 -103.49951 -39.688319 2.1783509 -4.9773505 93.299663 
	-78.131295 -103.49951 -34.840263 1.5930749 -4.9773505 93.299663 -39.688319 2.1783509 
6.89e+010 -39.761402 -3.7682492 -4.98282 80.891058 -34.912692 -4.3598662 -77.837756 -123.27004 
	-4.98282 80.891058 -39.761402 -3.7682492 -77.837756 -123.27004 -34.912692 -4.3598662 
	-34.912692 -4.3598662 -77.837756 -123.27004 -39.761329 -3.7685699 -4.9828184 80.890382 
	-77.837756 -123.27004 -34.912692 -4.3598662 -4.9828184 80.890382 -39.761329 -3.7685699 
6.9e+010 -40.133845 -9.3676931 -4.988165 68.481512 -35.284656 -9.9647154 -77.890914 -143.15196 
	-4.988165 68.481512 -40.133845 -9.3676931 -77.890914 -143.15196 -35.284656 -9.9647154 
	-35.284656 -9.9647154 -77.890914 -143.15196 -40.1338 -9.3677725 -4.9881635 68.48133 
	-77.890914 -143.15196 -35.284656 -9.9647154 -4.9881635 68.48133 -40.1338 -9.3677725 
6.91e+010 -40.808986 -14.084674 -4.9934154 56.071884 -35.959365 -14.68644 -78.291061 -162.77189 
	-4.9934154 56.071884 -40.808986 -14.084674 -78.291061 -162.77189 -35.959365 -14.68644 
	-35.959365 -14.68644 -78.291061 -162.77189 -40.808947 -14.0849 -4.9934138 56.071208 
	-78.291061 -162.77189 -35.959365 -14.68644 -4.9934138 56.071208 -40.808947 -14.0849 
6.92e+010 -41.781686 -17.179437 -4.9986161 43.660981 -36.931616 -17.784662 -79.056564 178.35251 
	-4.9986161 43.660981 -41.781686 -17.179437 -79.056564 178.35251 -36.931616 -17.784662 
	-36.931616 -17.784662 -79.056564 178.35251 -41.78165 -17.179471 -4.9986147 43.660799 
	-79.056564 178.35251 -36.931616 -17.784662 -4.9986147 43.660799 -41.78165 -17.179471 
6.93e+010 -43.004033 -17.56107 -5.0038219 31.249731 -38.153401 -18.16867 -80.218826 160.95457 
	-5.0038219 31.249731 -43.004033 -17.56107 -80.218826 160.95457 -38.153401 -18.16867 
	-38.153401 -18.16867 -80.218826 160.95457 -43.004021 -17.561 -5.0038203 31.249055 
	-80.218826 160.95457 -38.153401 -18.16867 -5.0038203 31.249055 -43.004021 -17.561 
6.94e+010 -44.297637 -13.810907 -5.0090852 18.837242 -39.446183 -14.420274 -81.796361 146.29934 
	-5.0090852 18.837242 -44.297637 -13.810907 -81.796361 146.29934 -39.446183 -14.420274 
	-39.446183 -14.420274 -81.796361 146.29934 -44.297621 -13.810576 -5.0090838 18.836566 
	-81.796361 146.29934 -39.446183 -14.420274 -5.0090838 18.836566 -44.297621 -13.810576 
6.95e+010 -45.225601 -5.1671343 -5.014448 6.4242398 -40.37299 -5.7796747 -83.716817 136.80742 
	-5.014448 6.4242398 -45.225601 -5.1671343 -83.716817 136.80742 -40.37299 -5.7796747 
	-40.37299 -5.7796747 -83.716817 136.80742 -45.225558 -5.1669795 -5.0144466 6.4240572 
	-83.716817 136.80742 -40.37299 -5.7796747 -5.0144466 6.4240572 -45.225558 -5.1669795 
6.96e+010 -45.240735 6.0102545 -5.0199336 -5.9884551 -40.386943 5.392231 -85.440901 135.64896 
	-5.0199336 -5.9884551 -45.240735 6.0102545 -85.440901 135.64896 -40.386943 5.392231 
	-40.386943 5.392231 -85.440901 135.64896 -45.240626 6.0108421 -5.0199322 -5.9891313 
	-85.440901 135.64896 -40.386943 5.392231 -5.0199322 -5.9891313 -45.240626 6.0108421 
6.97e+010 -44.335026 14.754545 -5.0255421 -18.40147 -39.48041 14.129651 -85.710925 141.01056 
	-5.0255421 -18.40147 -44.335026 14.754545 -85.710925 141.01056 -39.48041 14.129651 
	-39.48041 14.129651 -85.710925 141.01056 -44.334958 14.754646 -5.0255407 -18.401652 
	-85.710925 141.01056 -39.48041 14.129651 -5.0255407 -18.401652 -44.334958 14.754646 
6.98e+010 -43.051667 18.623014 -5.031251 -30.813489 -38.196322 17.992361 -84.263849 142.23551 
	-5.031251 -30.813489 -43.051667 18.623014 -84.263849 142.23551 -38.196322 17.992361 
	-38.196322 17.992361 -84.263849 142.23551 -43.051514 18.623106 -5.0312495 -30.814165 
	-84.263849 142.23551 -38.196322 17.992361 -5.0312495 -30.814165 -43.051514 18.623106 
6.99e+010 -41.832986 18.340692 -5.0370188 -43.225267 -36.976971 17.704854 -82.335976 134.68841 
	-5.0370188 -43.225267 -41.832986 18.340692 -82.335976 134.68841 -36.976971 17.704854 
	-36.976971 17.704854 -82.335976 134.68841 -41.832918 18.340671 -5.0370173 -43.225449 
	-82.335976 134.68841 -36.976971 17.704854 -5.0370173 -43.225449 -41.832918 18.340671 
7e+010 -40.861486 15.328974 -5.042793 -55.635718 -36.004681 14.687859 -80.670445 121.16359 
	-5.042793 -55.635718 -40.861486 15.328974 -80.670445 121.16359 -36.004681 14.687859 
	-36.004681 14.687859 -80.670445 121.16359 -40.861358 15.328762 -5.0427916 -55.636394 
	-80.670445 121.16359 -36.004681 14.687859 -5.0427916 -55.636394 -40.861358 15.328762 
